#P PM3 FREQ

TEST

0 1
O         -0.00001000    -0.38096200     0.00000000  
H          0.76796600     0.17999600     0.00000000  
H         -0.76792600     0.17996400     0.00000000  
 
