! RIJCOSX RI-B2PLYP D3BJ def2-tzvpp def2-tzvpp/C TIGHTSCF
! TightOpt NumFreq
* xyz 0 1
C      1.323958   -0.136126   -0.022726
C      0.192027    0.397992   -0.387193
C     -1.081112   -0.087938    0.194053
H      1.328200   -0.927142    0.698323
H      2.248309    0.208269   -0.437052
H      0.184690    1.195152   -1.113490
H     -1.198358    0.411889    1.177481
H     -1.049313   -1.198541    0.383876
H     -1.948401    0.136445   -0.493271

*
