! ======================================================
!  Input file for FireFly
! ======================================================
 $CONTRL SCFTYP=RHF $END
 $CONTRL ICHARG=1 MULT=1 $END
 $BASIS GBASIS=PM3 $END
 $DATA
Molecule specification
C1
C 6.000000 1.125703 0.575403 0.730279
O 8.000000 -0.036830 1.274878 0.244290
C 6.000000 -1.242574 0.734437 0.716228
O 8.000000 -2.310594 1.599798 0.332581
C 6.000000 -1.508365 -0.631528 0.056467
N 7.000000 -2.161552 -0.373437 -1.287405
C 6.000000 -0.189193 -1.390466 -0.205168
O 8.000000 0.146754 -1.203475 -1.604677
C 6.000000 0.898909 -0.953882 0.777749
O 8.000000 0.420222 -1.300741 2.098482
C 6.000000 2.331787 0.947293 -0.162030
O 8.000000 2.223313 0.327582 -1.437986
H 1.000000 1.293103 0.970718 1.733745
H 1.000000 -1.247176 0.651896 1.807821
H 1.000000 -2.195574 2.410358 0.855021
H 1.000000 -2.237881 -1.214484 0.617129
H 1.000000 -2.848959 -1.054646 -1.601157
H 1.000000 -0.419074 -2.460989 -0.074827
H 1.000000 1.073225 -0.820049 -1.632851
H 1.000000 1.823664 -1.511023 0.572812
H 1.000000 1.184202 -1.395738 2.670898
H 1.000000 3.249396 0.634648 0.312711
H 1.000000 2.352345 2.013305 -0.330032
H 1.000000 2.935047 0.705915 -1.981669
H 1.000000 -1.397452 -0.346136 -1.987273
H 1.000000 -2.585989 0.564650 -1.253406
 $END
