! ======================================================
!  Input file for FireFly
! ======================================================
 $CONTRL SCFTYP=RHF $END
 $CONTRL ICHARG=1 MULT=1 $END
 $BASIS GBASIS=PM3 $END
 $DATA
Molecule specification
C1
C 6.000000 1.128484 0.581091 0.734265
O 8.000000 -0.031345 1.277798 0.245143
C 6.000000 -1.257190 0.743428 0.726386
O 8.000000 -2.304280 1.594866 0.326694
C 6.000000 -1.505858 -0.638933 0.052850
N 7.000000 -2.160766 -0.369284 -1.292693
C 6.000000 -0.193695 -1.387541 -0.201517
O 8.000000 0.149641 -1.203602 -1.606204
C 6.000000 0.902665 -0.952954 0.782159
O 8.000000 0.418507 -1.303791 2.099861
C 6.000000 2.314632 0.943194 -0.158604
O 8.000000 2.217796 0.325757 -1.443448
H 1.000000 1.288129 0.957254 1.752863
H 1.000000 -1.262450 0.669267 1.819084
H 1.000000 -2.194784 2.410923 0.859084
H 1.000000 -2.240834 -1.203858 0.642663
H 1.000000 -2.849878 -1.077094 -1.581942
H 1.000000 -0.392822 -2.454691 -0.140089
H 1.000000 1.065580 -0.823894 -1.618962
H 1.000000 1.838474 -1.485165 0.598947
H 1.000000 1.208447 -1.393001 2.667361
H 1.000000 3.290161 0.638930 0.280834
H 1.000000 2.403333 2.040822 -0.317420
H 1.000000 2.930773 0.712111 -1.989016
H 1.000000 -1.376849 -0.368131 -1.968997
H 1.000000 -2.568736 0.584529 -1.241818
 $END
