! ======================================================
!  Input file for FireFly
! ======================================================
 $CONTRL SCFTYP=RHF $END
 $CONTRL ICHARG=1 MULT=1 $END
 $BASIS GBASIS=PM3 $END
 $DATA
Molecule specification
C1
C 6.000000 1.132285 0.576527 0.728844
O 8.000000 -0.038903 1.282423 0.229808
C 6.000000 -1.242930 0.721752 0.723114
O 8.000000 -2.319111 1.607947 0.336820
C 6.000000 -1.510295 -0.633584 0.050693
N 7.000000 -2.163690 -0.370288 -1.288317
C 6.000000 -0.202653 -1.397787 -0.220503
O 8.000000 0.145634 -1.208170 -1.593736
C 6.000000 0.891415 -0.954620 0.778720
O 8.000000 0.423875 -1.296483 2.085007
C 6.000000 2.334155 0.961409 -0.154704
O 8.000000 2.234296 0.323228 -1.432417
H 1.000000 1.356210 0.962134 1.725413
H 1.000000 -1.215880 0.656154 1.817448
H 1.000000 -2.173281 2.402779 0.876139
H 1.000000 -2.232162 -1.201958 0.652701
H 1.000000 -2.823330 -1.095714 -1.547491
H 1.000000 -0.376600 -2.483070 -0.047151
H 1.000000 1.057072 -0.814485 -1.705356
H 1.000000 1.834976 -1.522755 0.633460
H 1.000000 1.171839 -1.398867 2.675138
H 1.000000 3.255286 0.616936 0.317318
H 1.000000 2.333851 2.039155 -0.307824
H 1.000000 2.945749 0.697368 -1.978068
H 1.000000 -1.401999 -0.340271 -1.990361
H 1.000000 -2.614595 0.553287 -1.246888
 $END
