#P B3LYP/aug-cc-pvdz
#  Units(Ang,Deg)

File generated by Gabedit
Quantum Mechanics Energy(kCal/mol) = 75.097414

1 1
C 1.126014 0.592073 0.732180
O -0.036757 1.300378 0.218536
C -1.250510 0.760219 0.723917
O -2.311706 1.621733 0.309678
C -1.498861 -0.632370 0.088338
N -2.191757 -0.420062 -1.236895
C -0.188201 -1.393938 -0.221587
O 0.137526 -1.202423 -1.617775
C 0.910991 -0.952064 0.749565
O 0.418543 -1.308730 2.056563
C 2.319206 0.979235 -0.144332
O 2.269367 0.300768 -1.391478
H 1.301260 0.982340 1.749970
H -1.228227 0.740252 1.823542
H -2.211124 2.405825 0.869809
H -2.184638 -1.195619 0.723910
H -2.949658 -1.072444 -1.453311
H -0.349386 -2.461313 -0.100399
H 1.041149 -0.801995 -1.675428
H 1.865824 -1.470417 0.586903
H 1.083473 -1.895271 2.439817
H 3.272890 0.665655 0.332601
H 2.288934 2.077909 -0.326262
H 3.008845 0.667093 -1.906636
H -1.452708 -0.447658 -1.976290
H -2.544145 0.542052 -1.283069

