! AM1 Opt
* xyz 1   1
 C      1.12848432820160     0.58109061967447     0.73426503647530
 O     -0.03134536870786     1.27779799306033     0.24514266127077
 C     -1.25718989401235     0.74342792679232     0.72638618506161
 O     -2.30427988954599     1.59486625213053     0.32669403921245
 C     -1.50585780630163    -0.63893310503814     0.05284981752695
 N     -2.16076601536403    -0.36928374435828    -1.29269294050090
 C     -0.19369457551554    -1.38754095968977    -0.20151663277136
 O      0.14964072043550    -1.20360179735420    -1.60620390681770
 C      0.90266511686851    -0.95295423228945     0.78215935506676
 O      0.41850657403804    -1.30379110430262     2.09986081411925
 C      2.31463192705492     0.94319400870167    -0.15860360068837
 O      2.21779636751585     0.32575652294999    -1.44344759852451
 H      1.28812920147704     0.95725443389328     1.75286304363019
 H     -1.26245000508160     0.66926704505203     1.81908436816073
 H     -2.19478352294953     2.41092279067233     0.85908425682540
 H     -2.24083413405809    -1.20385841767356     0.64266296473411
 H     -2.84987797287982    -1.07709375765068    -1.58194158583704
 H     -0.39282218313355    -2.45469077997772    -0.14008874303674
 H      1.06557995358507    -0.82389414537794    -1.61896249544815
 H      1.83847402530448    -1.48516493632224     0.59894669894085
 H      1.20844666790348    -1.39300127703752     2.66736050998492
 H      3.29016076493344     0.63892995063862     0.28083396073646
 H      2.40333343495943     2.04082164865828    -0.31741964937292
 H      2.93077283970795     0.71211059103382    -1.98901611538630
 H     -1.37684878469889    -0.36813087745812    -1.96899652283114
 H     -2.56873554770881     0.58452945878596    -1.24181829136862
*

