! ======================================================
!  Input file for FireFly
! ======================================================
 $CONTRL SCFTYP=RHF $END
 $CONTRL ICHARG=1 MULT=1 $END
 $BASIS GBASIS=PM3 $END
 $DATA
Molecule specification
C1
C 6.000000 1.125420 0.593245 0.726878
O 8.000000 -0.035268 1.299309 0.220346
C 6.000000 -1.247318 0.757675 0.724950
O 8.000000 -2.311125 1.618726 0.304531
C 6.000000 -1.496705 -0.633455 0.088884
N 7.000000 -2.193250 -0.414959 -1.239899
C 6.000000 -0.195087 -1.393003 -0.221522
O 8.000000 0.133585 -1.205902 -1.615580
C 6.000000 0.910089 -0.957841 0.747385
O 8.000000 0.424139 -1.306468 2.053284
C 6.000000 2.318161 0.986270 -0.140918
O 8.000000 2.269834 0.301331 -1.387782
H 1.000000 1.285017 0.978911 1.736955
H 1.000000 -1.215265 0.744019 1.820777
H 1.000000 -2.184300 2.411190 0.871662
H 1.000000 -2.196212 -1.202751 0.722365
H 1.000000 -2.940627 -1.071865 -1.434762
H 1.000000 -0.360648 -2.480107 -0.105333
H 1.000000 1.038115 -0.808981 -1.668595
H 1.000000 1.867404 -1.465630 0.580930
H 1.000000 1.097195 -1.900942 2.446256
H 1.000000 3.252432 0.671680 0.316428
H 1.000000 2.304965 2.073442 -0.331524
H 1.000000 3.013623 0.660417 -1.916022
H 1.000000 -1.440821 -0.446681 -1.971853
H 1.000000 -2.545305 0.545343 -1.281690
 $END
