! ======================================================
!  Input file for FireFly
! ======================================================
 $CONTRL SCFTYP=RHF $END
 $CONTRL ICHARG=1 MULT=1 $END
 $BASIS GBASIS=PM3 $END
 $DATA
Molecule specification
C1
C 6.000000 1.124417 0.577084 0.727721
O 8.000000 -0.030168 1.291239 0.223309
C 6.000000 -1.252604 0.757757 0.711871
O 8.000000 -2.314176 1.628882 0.316777
C 6.000000 -1.513340 -0.634638 0.074937
N 7.000000 -2.183340 -0.412922 -1.266651
C 6.000000 -0.207087 -1.390548 -0.212436
O 8.000000 0.150501 -1.177936 -1.598447
C 6.000000 0.894575 -0.971597 0.759410
O 8.000000 0.443924 -1.336483 2.074453
C 6.000000 2.315171 0.951405 -0.134203
O 8.000000 2.247694 0.318010 -1.424282
H 1.000000 1.292171 0.950182 1.741186
H 1.000000 -1.232146 0.723043 1.810356
H 1.000000 -2.182217 2.398621 0.891652
H 1.000000 -2.236543 -1.196107 0.685467
H 1.000000 -2.806696 -1.169971 -1.536472
H 1.000000 -0.384600 -2.467649 -0.123830
H 1.000000 1.073575 -0.823300 -1.631103
H 1.000000 1.835485 -1.504151 0.575113
H 1.000000 1.175400 -1.165444 2.688538
H 1.000000 3.259930 0.601949 0.312429
H 1.000000 2.406245 2.059199 -0.266140
H 1.000000 2.967257 0.703515 -1.957759
H 1.000000 -1.403174 -0.314511 -1.972107
H 1.000000 -2.667062 0.489090 -1.228909
 $END
