! ======================================================
!  Input file for FireFly
! ======================================================
 $CONTRL SCFTYP=RHF $END
 $CONTRL ICHARG=1 MULT=1 $END
 $BASIS GBASIS=PM3 $END
 $DATA
Molecule specification
C1
C 6.000000 1.128713 0.580785 0.731760
O 8.000000 -0.031821 1.284569 0.231607
C 6.000000 -1.245485 0.742485 0.724212
O 8.000000 -2.307642 1.609036 0.317590
C 6.000000 -1.505892 -0.639212 0.067789
N 7.000000 -2.190707 -0.397126 -1.261588
C 6.000000 -0.192618 -1.391983 -0.222333
O 8.000000 0.141620 -1.192568 -1.610314
C 6.000000 0.899830 -0.952455 0.767506
O 8.000000 0.412777 -1.309205 2.071259
C 6.000000 2.327935 0.967364 -0.148338
O 8.000000 2.251443 0.312500 -1.416737
H 1.000000 1.312421 0.962367 1.743877
H 1.000000 -1.237694 0.685655 1.818660
H 1.000000 -2.183931 2.424281 0.842601
H 1.000000 -2.213561 -1.212921 0.674722
H 1.000000 -2.860227 -1.122598 -1.522786
H 1.000000 -0.383116 -2.465320 -0.104403
H 1.000000 1.048118 -0.802041 -1.664632
H 1.000000 1.832877 -1.500724 0.597016
H 1.000000 1.184678 -1.413945 2.663514
H 1.000000 3.264482 0.662118 0.328550
H 1.000000 2.344262 2.047735 -0.324634
H 1.000000 2.972713 0.691543 -1.960449
H 1.000000 -1.440497 -0.368498 -1.975415
H 1.000000 -2.640862 0.532545 -1.222744
 $END
