! AM1 Opt
* xyz 1   1
 C      1.12152690910570     0.59098706080375     0.73120604126887
 O     -0.03688413203499     1.29642172521134     0.22174868617590
 C     -1.23817288641906     0.75433631984674     0.72432774324963
 O     -2.30635571933964     1.61412709006981     0.29907365755329
 C     -1.49837940081454    -0.63681673970122     0.08967919031437
 N     -2.19240463279956    -0.40001161036420    -1.24671040799393
 C     -0.20227240624967    -1.39753855929619    -0.22199685081232
 O      0.12562126049502    -1.21118973298614    -1.61028684347476
 C      0.90522966399293    -0.95602824605521     0.74652813454838
 O      0.43923413470567    -1.30599855173623     2.04874309125754
 C      2.31244644172272     0.99873004063459    -0.13441401077647
 O      2.26945709187445     0.30267223269032    -1.38597753537663
 H      1.26795280993210     0.97473656537788     1.76116583586089
 H     -1.22263198339941     0.71612073809221     1.82067000081348
 H     -2.17668473784304     2.41882878476379     0.82424167638988
 H     -2.20397032941735    -1.20642452194905     0.68910776724826
 H     -2.92052273559007    -1.09723809281243    -1.43523836409034
 H     -0.40723619503581    -2.45784088081673    -0.10495111152883
 H      1.03318865711874    -0.81976214092489    -1.66499070616169
 H      1.85040468300363    -1.48040581433648     0.55978888791948
 H      1.08704176900705    -1.88407524903286     2.47196977749540
 H      3.25330393416648     0.71149374330115     0.36704129933852
 H      2.36127561886887     2.06723048160838    -0.34794445667354
 H      3.00385629798822     0.64105427182618    -1.92648222897074
 H     -1.45589361436164    -0.50422203706485    -1.96562773933359
 H     -2.57773895385371     0.56376093729100    -1.22407186524654
*

