! ======================================================
!  Input file for FireFly
! ======================================================
 $CONTRL SCFTYP=RHF $END
 $CONTRL ICHARG=1 MULT=1 $END
 $BASIS GBASIS=PM3 $END
 $DATA
Molecule specification
C1
C 6.000000 1.133371 0.576709 0.744838
O 8.000000 -0.026882 1.294622 0.268893
C 6.000000 -1.250003 0.740247 0.721657
O 8.000000 -2.300586 1.613841 0.302008
C 6.000000 -1.498995 -0.631893 0.058723
N 7.000000 -2.143758 -0.377228 -1.272549
C 6.000000 -0.187866 -1.405131 -0.220509
O 8.000000 0.156916 -1.222133 -1.594255
C 6.000000 0.903935 -0.958289 0.778274
O 8.000000 0.403245 -1.314487 2.073232
C 6.000000 2.319910 0.972182 -0.163013
O 8.000000 2.184443 0.330170 -1.443323
H 1.000000 1.381920 0.944460 1.750390
H 1.000000 -1.263966 0.682948 1.814674
H 1.000000 -2.183113 2.418944 0.850993
H 1.000000 -2.210616 -1.206024 0.657022
H 1.000000 -2.842811 -1.066232 -1.535163
H 1.000000 -0.376421 -2.453289 -0.035222
H 1.000000 1.031239 -0.789859 -1.661444
H 1.000000 1.824488 -1.502739 0.636603
H 1.000000 1.152836 -1.413418 2.699099
H 1.000000 3.250808 0.600876 0.296977
H 1.000000 2.316254 2.071333 -0.303095
H 1.000000 2.880817 0.728393 -2.003744
H 1.000000 -1.406749 -0.379758 -2.000609
H 1.000000 -2.567419 0.559131 -1.270087
 $END
