! AM1 Opt
* xyz 1   1
 C      1.12495057046570     0.58669776711414     0.73441324602318
 O     -0.03937799106807     1.30071566494966     0.21669410931087
 C     -1.25172774034680     0.76337543366277     0.72320635425710
 O     -2.31229461531581     1.62339742685716     0.31409935023546
 C     -1.50069075741505    -0.63191208299651     0.08719425339660
 N     -2.18954509476030    -0.42402779202325    -1.23671320105946
 C     -0.17991695342041    -1.39275795941352    -0.22238235973609
 O      0.14146890256813    -1.19859533776785    -1.61934265028456
 C      0.91063918833780    -0.94375274514642     0.75344308977426
 O      0.41275837720802    -1.30985033214405     2.05824738560533
 C      2.32151407191429     0.97436869550863    -0.14548636629975
 O      2.26771267665090     0.29993654859008    -1.39623245101563
 H      1.30915828081578     0.97333850014500     1.74214699369543
 H     -1.24441159745816     0.72514398836116     1.81807781906459
 H     -2.24103824589493     2.42615533915701     0.87664362399752
 H     -2.18211092292684    -1.19636852425383     0.72064505725607
 H     -2.94514634066798    -1.07971336246295    -1.47180577989045
 H     -0.35498141842352    -2.46093279859064    -0.09340092710988
 H      1.04157535840322    -0.79603944056245    -1.68246965264557
 H      1.85472827440220    -1.47826100231948     0.58972984703524
 H      1.08941791023421    -1.91200150629279     2.46363294186510
 H      3.26088591371887     0.68742047957524     0.34906349868236
 H      2.29511731114517     2.04411627541445    -0.32101558572622
 H      3.01634006319528     0.67678448213143    -1.91571066355451
 H     -1.47774934756148    -0.47640994332710    -1.96587785044569
 H     -2.56106250804106     0.55944889470719    -1.25848018407332
*

