! ======================================================
!  Input file for FireFly
! ======================================================
 $CONTRL SCFTYP=RHF $END
 $CONTRL ICHARG=1 MULT=1 $END
 $BASIS GBASIS=PM3 $END
 $DATA
Molecule specification
C1
C 6.000000 1.133777 0.574313 0.735553
O 8.000000 -0.031336 1.284725 0.242574
C 6.000000 -1.258130 0.738410 0.740983
O 8.000000 -2.305536 1.598911 0.316495
C 6.000000 -1.509599 -0.640981 0.054682
N 7.000000 -2.155878 -0.366604 -1.294473
C 6.000000 -0.199343 -1.390694 -0.215470
O 8.000000 0.155045 -1.200992 -1.599844
C 6.000000 0.899124 -0.952718 0.788640
O 8.000000 0.421025 -1.305663 2.093585
C 6.000000 2.315358 0.951999 -0.157425
O 8.000000 2.210850 0.322606 -1.447822
H 1.000000 1.347562 0.947512 1.736360
H 1.000000 -1.249504 0.684676 1.836612
H 1.000000 -2.195271 2.406449 0.861926
H 1.000000 -2.228731 -1.200442 0.656125
H 1.000000 -2.836713 -1.072778 -1.547803
H 1.000000 -0.356644 -2.480676 -0.101351
H 1.000000 1.048668 -0.825540 -1.682233
H 1.000000 1.849923 -1.495698 0.650525
H 1.000000 1.216417 -1.400448 2.700047
H 1.000000 3.238078 0.592941 0.270280
H 1.000000 2.363013 2.020695 -0.294938
H 1.000000 2.930503 0.723368 -1.997830
H 1.000000 -1.382828 -0.377981 -1.986458
H 1.000000 -2.567137 0.576227 -1.264994
 $END
