! AM1 Opt
* xyz 1   1
 C      1.12921396917208     0.58145277514063     0.72890841729967
 O     -0.03091428642023     1.28616370883819     0.22008013607869
 C     -1.25733431397682     0.73871180975875     0.73172371619292
 O     -2.31433779262519     1.60647067022533     0.34749529902393
 C     -1.50850105245044    -0.64482157968746     0.04741500465202
 N     -2.17148960441945    -0.37137289435880    -1.28551496567974
 C     -0.19888069326957    -1.40317400087079    -0.21237530751618
 O      0.14127857197478    -1.22014545575901    -1.60025207765843
 C      0.89551136565067    -0.95286924901562     0.77359732156652
 O      0.41509195268121    -1.29488113189431     2.07824725993018
 C      2.32159878220461     0.96695754502435    -0.14804255174645
 O      2.24546947023229     0.31906726515837    -1.42575968411012
 H      1.29097957395804     0.95611545097235     1.74686731030096
 H     -1.24117586578989     0.66920004141903     1.82611819277807
 H     -2.18465978848554     2.40821717264182     0.87995117993123
 H     -2.24364237127424    -1.20871720534336     0.64342075429858
 H     -2.80881296511234    -1.11505768453558    -1.54680811114448
 H     -0.39688370335855    -2.48115300701649    -0.15223223683750
 H      1.04896075863341    -0.80615875386180    -1.59811891612286
 H      1.84259659634357    -1.48911806826306     0.59724642725326
 H      1.18849452438340    -1.38925299188788     2.63890292994238
 H      3.29148773558705     0.66544975888545     0.29654403432758
 H      2.40146368477816     2.06047220800537    -0.30526645951059
 H      2.96191034827711     0.69931021531474    -1.96122778715274
 H     -1.40700765018146    -0.33700139608730    -1.98553570728151
 H     -2.63985472517896     0.54482716569776    -1.23850285127227
*

