! AM1 Opt
* xyz 1   1
 C      1.12570292760843     0.57540325965755     0.73027924247615
 O     -0.03683028599163     1.27487844702786     0.24429044611611
 C     -1.24257350840170     0.73443688931961     0.71622782974044
 O     -2.31059444009244     1.59979818701024     0.33258063456734
 C     -1.50836532191145    -0.63152794232650     0.05646725513554
 N     -2.16155193431141    -0.37343703401115    -1.28740545684642
 C     -0.18919290681625    -1.39046627573621    -0.20516779742271
 O      0.14675379278703    -1.20347498812642    -1.60467666428625
 C      0.89890866744104    -0.95388193374169     0.77774914001121
 O      0.42022184197263    -1.30074109721611     2.09848185542302
 C      2.33178702321534     0.94729299103282    -0.16203023379180
 O      2.22331277336688     0.32758216173407    -1.43798564525889
 H      1.29310275825984     0.97071796627037     1.73374527954449
 H     -1.24717634087482     0.65189606691517     1.80782116947417
 H     -2.19557431980322     2.41035777666995     0.85502097831169
 H     -2.23788138261481    -1.21448387722485     0.61712929384408
 H     -2.84895876419274    -1.05464618173965    -1.60115711488827
 H     -0.41907361918438    -2.46098895893668    -0.07482687683179
 H      1.07322504179265    -0.82004928596577    -1.63285122094062
 H      1.82366415571399    -1.51102336398258     0.57281238609602
 H      1.18420171646667    -1.39573791147703     2.67089847403108
 H      3.24939569736022     0.63464849360658     0.31271081475677
 H      2.35234479128049     2.01330491935652    -0.33003178943018
 H      2.93504738791216     0.70591529100111    -1.98166917630419
 H     -1.39745224310962    -0.34613566456368    -1.98727286767667
 H     -2.58598949113759     0.56464967563234    -1.25340591581409
*

