! AM1 Opt
* xyz 1   1
 C      1.13544176014390     0.57741994499910     0.73111441927523
 O     -0.02670324301080     1.28340490326090     0.26828793179709
 C     -1.25815983102429     0.74923043385171     0.72171523596336
 O     -2.30191328767231     1.60851273277680     0.30680242281862
 C     -1.48706404881394    -0.64128627980651     0.05670934702903
 N     -2.15027840338066    -0.37317852451891    -1.28212114753766
 C     -0.19574902047184    -1.39999029248548    -0.19999697347662
 O      0.15907530958242    -1.21227864785442    -1.59925890044792
 C      0.90387941833120    -0.96166648253905     0.77384390845039
 O      0.40489155163585    -1.31279943856075     2.08524485298409
 C      2.32108073794981     0.95210386163208    -0.16384185174317
 O      2.19071121964382     0.33077704781863    -1.44296175801714
 H      1.31873313628512     0.94296159497297     1.75406899905517
 H     -1.28008522609028     0.67603497019991     1.81395512823144
 H     -2.19596635508138     2.41806220648816     0.85124958750138
 H     -2.20512115430874    -1.18729347241601     0.66450393984061
 H     -2.85153041435901    -1.05866557678025    -1.56095129654664
 H     -0.37430698395691    -2.47471085256468    -0.12256786666523
 H      1.04108350003338    -0.78831674138995    -1.66696606625094
 H      1.84476535416143    -1.49440251981951     0.61999224015454
 H      1.19199546896211    -1.39546623540904     2.66399267639811
 H      3.27568385122772     0.64929375110309     0.24278212540175
 H      2.34719872573399     2.02005145597037    -0.33856635810760
 H      2.88610059783936     0.72335134332875    -2.00797426946684
 H     -1.37304841521131    -0.38579720462859    -1.96488201995454
 H     -2.53678650040010     0.58032402192275    -1.23624711234411
*

