! ======================================================
!  Input file for FireFly
! ======================================================
 $CONTRL SCFTYP=RHF $END
 $CONTRL ICHARG=1 MULT=1 $END
 $BASIS GBASIS=PM3 $END
 $DATA
Molecule specification
C1
C 6.000000 1.135442 0.577420 0.731114
O 8.000000 -0.026703 1.283405 0.268288
C 6.000000 -1.258160 0.749230 0.721715
O 8.000000 -2.301913 1.608513 0.306802
C 6.000000 -1.487064 -0.641286 0.056709
N 7.000000 -2.150278 -0.373179 -1.282121
C 6.000000 -0.195749 -1.399990 -0.199997
O 8.000000 0.159075 -1.212279 -1.599259
C 6.000000 0.903879 -0.961666 0.773844
O 8.000000 0.404892 -1.312799 2.085245
C 6.000000 2.321081 0.952104 -0.163842
O 8.000000 2.190711 0.330777 -1.442962
H 1.000000 1.318733 0.942962 1.754069
H 1.000000 -1.280085 0.676035 1.813955
H 1.000000 -2.195966 2.418062 0.851250
H 1.000000 -2.205121 -1.187293 0.664504
H 1.000000 -2.851530 -1.058666 -1.560951
H 1.000000 -0.374307 -2.474711 -0.122568
H 1.000000 1.041084 -0.788317 -1.666966
H 1.000000 1.844765 -1.494403 0.619992
H 1.000000 1.191995 -1.395466 2.663993
H 1.000000 3.275684 0.649294 0.242782
H 1.000000 2.347199 2.020051 -0.338566
H 1.000000 2.886101 0.723351 -2.007974
H 1.000000 -1.373048 -0.385797 -1.964882
H 1.000000 -2.536787 0.580324 -1.236247
 $END
