! AM1 Opt
* xyz 1   1
 C      1.13377705069028     0.57431324800010     0.73555309974527
 O     -0.03133579820396     1.28472532906953     0.24257396703256
 C     -1.25812985035588     0.73841001183545     0.74098306498160
 O     -2.30553648205117     1.59891064925659     0.31649455540251
 C     -1.50959925810779    -0.64098133504463     0.05468224350224
 N     -2.15587847118996    -0.36660391259534    -1.29447284658703
 C     -0.19934328165528    -1.39069402408194    -0.21547006589670
 O      0.15504539900996    -1.20099155145308    -1.59984438793503
 C      0.89912368701655    -0.95271800205836     0.78863984350693
 O      0.42102515723650    -1.30566328361741     2.09358458147412
 C      2.31535843827558     0.95199926907353    -0.15742472456890
 O      2.21085014433325     0.32260551412814    -1.44782187043905
 H      1.34756200738080     0.94751178611899     1.73636000805778
 H     -1.24950421878967     0.68467615355359     1.83661223680259
 H     -2.19527119898472     2.40644857567574     0.86192618186001
 H     -2.22873090607177    -1.20044247492443     0.65612524401346
 H     -2.83671299700049    -1.07277822745168    -1.54780319704814
 H     -0.35664422915645    -2.48067586312829    -0.10135137706461
 H      1.04866831949244    -0.82554017313968    -1.68223270249727
 H      1.84992322042792    -1.49569836787828     0.65052549375094
 H      1.21641675575494    -1.40044791782521     2.70004747271337
 H      3.23807811962283     0.59294091293432     0.27028034210791
 H      2.36301286258592     2.02069548957888    -0.29493794236414
 H      2.93050320012295     0.72336821899332    -1.99783029952617
 H     -1.38282812350146    -0.37798054067107    -1.98645762672852
 H     -2.56713705203607     0.57622688757765    -1.26499353169825
*

