! AM1 Opt
* xyz 1   1
 C      1.13337101309425     0.57670871320653     0.74483828231250
 O     -0.02688162021260     1.29462158135839     0.26889276652375
 C     -1.25000347166778     0.74024743018173     0.72165738057389
 O     -2.30058602395622     1.61384054035801     0.30200783507911
 C     -1.49899453391689    -0.63189271305712     0.05872265412790
 N     -2.14375758513613    -0.37722816968212    -1.27254884172684
 C     -0.18786589969415    -1.40513132558598    -0.22050902235477
 O      0.15691637949097    -1.22213313703819    -1.59425487184613
 C      0.90393542855040    -0.95828914094441     0.77827398710349
 O      0.40324469925127    -1.31448684374346     2.07323210468192
 C      2.31991025143147     0.97218225932875    -0.16301283312025
 O      2.18444348613395     0.33017002242271    -1.44332294175455
 H      1.38192042446787     0.94445981719020     1.75039008489331
 H     -1.26396622969070     0.68294808367636     1.81467406893466
 H     -2.18311341988909     2.41894435869869     0.85099331371813
 H     -2.21061614483552    -1.20602424536616     0.65702236317559
 H     -2.84281119330192    -1.06623204929014    -1.53516335434735
 H     -0.37642055164318    -2.45328946153283    -0.03522168343858
 H      1.03123943389824    -0.78985906204819    -1.66144385694160
 H      1.82448781199431    -1.50273895970957     0.63660321468245
 H      1.15283582335535    -1.41341792197392     2.69909939939650
 H      3.25080759967719     0.60087642816299     0.29697718881754
 H      2.31625396594914     2.07133292654234    -0.30309530296368
 H      2.88081695478193     0.72839271842004    -2.00374437888233
 H     -1.40674885040607    -0.37975771455253    -2.00060850908651
 H     -2.56741888546484     0.55913100755612    -1.27008704218731
*

