! ======================================================
!  Input file for FireFly
! ======================================================
 $CONTRL SCFTYP=RHF $END
 $CONTRL ICHARG=1 MULT=1 $END
 $BASIS GBASIS=PM3 $END
 $DATA
Molecule specification
C1
C 6.000000 1.133826 0.580465 0.731301
O 8.000000 -0.033444 1.286539 0.221552
C 6.000000 -1.255101 0.731393 0.730740
O 8.000000 -2.316648 1.606871 0.343140
C 6.000000 -1.509175 -0.643285 0.046392
N 7.000000 -2.168479 -0.369016 -1.287901
C 6.000000 -0.202411 -1.402362 -0.215319
O 8.000000 0.143436 -1.216246 -1.596793
C 6.000000 0.894950 -0.954590 0.776786
O 8.000000 0.416423 -1.294760 2.077710
C 6.000000 2.322272 0.965162 -0.147948
O 8.000000 2.241493 0.319372 -1.427933
H 1.000000 1.318436 0.957491 1.752381
H 1.000000 -1.231577 0.666602 1.824738
H 1.000000 -2.173084 2.410801 0.887780
H 1.000000 -2.233540 -1.193457 0.651643
H 1.000000 -2.811727 -1.126787 -1.532573
H 1.000000 -0.378543 -2.466485 -0.137276
H 1.000000 1.028456 -0.818892 -1.629891
H 1.000000 1.824759 -1.482972 0.624023
H 1.000000 1.221574 -1.396027 2.674365
H 1.000000 3.286538 0.660315 0.290088
H 1.000000 2.397899 2.058213 -0.296720
H 1.000000 2.969465 0.703923 -1.978827
H 1.000000 -1.400368 -0.343505 -1.982541
H 1.000000 -2.634937 0.556918 -1.235261
 $END
