! AM1 Opt
* xyz 1   1
 C      1.13053022809697     0.57391889132072     0.74098207884170
 O     -0.02610148326098     1.30007033454340     0.26911599556615
 C     -1.23401756892272     0.73310013359016     0.72948554042037
 O     -2.30105137450847     1.61962580307230     0.29850065363708
 C     -1.50372625817379    -0.62646859660863     0.06227242373732
 N     -2.14964751095575    -0.38024404637024    -1.27684557820596
 C     -0.17257723248371    -1.40006051551761    -0.21844084173818
 O      0.15319338452741    -1.23337303733616    -1.59834027815238
 C      0.90034632977060    -0.95709914432932     0.78174419193275
 O      0.39754858927892    -1.31450903884690     2.06819963284956
 C      2.30865885665210     0.97167852704587    -0.16316157086729
 O      2.18380523332241     0.33648678990953    -1.43987294133048
 H      1.34214938607968     0.94136070638169     1.74504423984964
 H     -1.24639451981835     0.67151983677692     1.82404491637618
 H     -2.19095163895141     2.43025300765369     0.83949512176404
 H     -2.24107928818899    -1.22711932832183     0.61372652223050
 H     -2.83726680928452    -1.09907125583616    -1.50812586228258
 H     -0.41497113017746    -2.47794755315125    -0.06860480763094
 H      1.03458552360876    -0.79623645835321    -1.61263951759548
 H      1.83288780745033    -1.53145003019182     0.59021171168698
 H      1.16376747451400    -1.41909574886426     2.70559772844847
 H      3.24607725406231     0.66110677574288     0.29950669785032
 H      2.37233957718417     2.04897852043106    -0.29686252830330
 H      2.88553742588730     0.72505516177977    -2.02096792561554
 H     -1.39405873907380    -0.39422311143237    -1.98925721149302
 H     -2.58585431495299     0.56278327523274    -1.24827350050666
*

