#P B3LYP/aug-cc-pvdz
#  Units(Ang,Deg)

File generated by Gabedit
Quantum Mechanics Energy(kCal/mol) = 75.209533

1 1
C 1.127645 0.591842 0.732026
O -0.032971 1.280934 0.224795
C -1.250127 0.741498 0.722339
O -2.300309 1.603538 0.286825
C -1.518822 -0.633036 0.066547
N -2.211454 -0.379996 -1.257391
C -0.210366 -1.390420 -0.209593
O 0.108708 -1.225356 -1.608262
C 0.904124 -0.941008 0.748208
O 0.464539 -1.318773 2.067364
C 2.321495 0.998096 -0.131437
O 2.271313 0.313251 -1.373286
H 1.291251 0.970114 1.744108
H -1.228938 0.714283 1.815124
H -2.089036 2.439397 0.758019
H -2.225087 -1.194220 0.678118
H -2.904658 -1.077282 -1.531192
H -0.372731 -2.465712 -0.071900
H 1.005613 -0.812490 -1.669772
H 1.850730 -1.454750 0.548708
H 1.225339 -1.753851 2.502335
H 3.284173 0.761530 0.314454
H 2.290024 2.054655 -0.331177
H 3.002325 0.670645 -1.917394
H -1.447772 -0.403485 -1.971680
H -2.625569 0.560554 -1.183604

