#P B3LYP/aug-cc-pvdz
#  Units(Ang,Deg)

File generated by Gabedit
Quantum Mechanics Energy(kCal/mol) = 74.628962

1 1
C 1.138098 0.576892 0.739793
O -0.025666 1.290005 0.269110
C -1.258071 0.746166 0.719503
O -2.299757 1.610504 0.304446
C -1.492306 -0.636588 0.055746
N -2.144577 -0.376191 -1.273802
C -0.196627 -1.402354 -0.214005
O 0.158976 -1.217795 -1.594331
C 0.903972 -0.959368 0.775544
O 0.402947 -1.314147 2.076261
C 2.322447 0.967362 -0.162851
O 2.185446 0.328984 -1.442953
H 1.374521 0.939160 1.748465
H -1.274558 0.684184 1.813161
H -2.182525 2.414786 0.853638
H -2.205020 -1.195523 0.681760
H -2.846951 -1.058195 -1.549911
H -0.363437 -2.477568 -0.054207
H 1.033368 -0.787751 -1.690081
H 1.849743 -1.502087 0.647580
H 1.182217 -1.409798 2.702679
H 3.269859 0.592115 0.278717
H 2.304799 2.067154 -0.317918
H 2.891292 0.734474 -2.008408
H -1.395361 -0.378255 -1.994745
H -2.558763 0.574206 -1.265513

