#P B3LYP/aug-cc-pvdz
#  Units(Ang,Deg)

File generated by Gabedit
Quantum Mechanics Energy(kCal/mol) = 74.628909

1 1
C 1.133777 0.574313 0.735553
O -0.031336 1.284725 0.242574
C -1.258130 0.738410 0.740983
O -2.305536 1.598911 0.316495
C -1.509599 -0.640981 0.054682
N -2.155878 -0.366604 -1.294473
C -0.199343 -1.390694 -0.215470
O 0.155045 -1.200992 -1.599844
C 0.899124 -0.952718 0.788640
O 0.421025 -1.305663 2.093585
C 2.315358 0.951999 -0.157425
O 2.210850 0.322606 -1.447822
H 1.347562 0.947512 1.736360
H -1.249504 0.684676 1.836612
H -2.195271 2.406449 0.861926
H -2.228731 -1.200442 0.656125
H -2.836713 -1.072778 -1.547803
H -0.356644 -2.480676 -0.101351
H 1.048668 -0.825540 -1.682233
H 1.849923 -1.495698 0.650525
H 1.216417 -1.400448 2.700047
H 3.238078 0.592941 0.270280
H 2.363013 2.020695 -0.294938
H 2.930503 0.723368 -1.997830
H -1.382828 -0.377981 -1.986458
H -2.567137 0.576227 -1.264994

