! ======================================================
!  Input file for FireFly
! ======================================================
 $CONTRL SCFTYP=RHF $END
 $CONTRL ICHARG=1 MULT=1 $END
 $BASIS GBASIS=PM3 $END
 $DATA
Molecule specification
C1
C 6.000000 1.134697 0.579742 0.742329
O 8.000000 -0.017324 1.291053 0.268636
C 6.000000 -1.241275 0.756436 0.732441
O 8.000000 -2.281262 1.611669 0.307970
C 6.000000 -1.492377 -0.631754 0.061791
N 7.000000 -2.166563 -0.391708 -1.282881
C 6.000000 -0.193375 -1.404144 -0.220383
O 8.000000 0.154286 -1.251492 -1.609615
C 6.000000 0.901809 -0.956519 0.769277
O 8.000000 0.391155 -1.316147 2.072009
C 6.000000 2.320811 0.971870 -0.158253
O 8.000000 2.186981 0.350420 -1.439407
H 1.000000 1.363861 0.963448 1.758363
H 1.000000 -1.259385 0.705660 1.826218
H 1.000000 -2.164333 2.432234 0.831055
H 1.000000 -2.191920 -1.193180 0.680564
H 1.000000 -2.854426 -1.093957 -1.579128
H 1.000000 -0.391032 -2.452674 -0.023262
H 1.000000 1.049417 -0.826605 -1.663670
H 1.000000 1.830021 -1.496066 0.627051
H 1.000000 1.162078 -1.437146 2.697779
H 1.000000 3.263176 0.646991 0.290022
H 1.000000 2.305985 2.058426 -0.305594
H 1.000000 2.907218 0.750807 -1.989459
H 1.000000 -1.424850 -0.358541 -1.999491
H 1.000000 -2.602584 0.548278 -1.256864
 $END
