#P B3LYP/aug-cc-pvdz
#  Units(Ang,Deg)

File generated by Gabedit
Quantum Mechanics Energy(kCal/mol) = 75.224284

1 1
C 1.127481 0.592835 0.737730
O -0.033522 1.278226 0.225532
C -1.248077 0.739827 0.719652
O -2.301638 1.606773 0.286246
C -1.521487 -0.635545 0.069895
N -2.215479 -0.375013 -1.260887
C -0.208608 -1.389044 -0.211203
O 0.108806 -1.226147 -1.608643
C 0.905715 -0.942048 0.752809
O 0.468865 -1.320745 2.068189
C 2.318898 0.994086 -0.134258
O 2.271952 0.315217 -1.374491
H 1.287656 0.972637 1.762737
H -1.238398 0.706241 1.818364
H -2.092109 2.445268 0.754595
H -2.232892 -1.203326 0.666671
H -2.884636 -1.086926 -1.539515
H -0.391221 -2.448668 -0.075131
H 1.004357 -0.811468 -1.672516
H 1.848481 -1.464878 0.548379
H 1.238199 -1.730214 2.543259
H 3.294517 0.765374 0.339460
H 2.313655 2.080106 -0.347751
H 3.002553 0.675466 -1.929066
H -1.448023 -0.407741 -1.974279
H -2.639628 0.551922 -1.181747

