! ======================================================
!  Input file for FireFly
! ======================================================
 $CONTRL SCFTYP=RHF $END
 $CONTRL ICHARG=1 MULT=1 $END
 $BASIS GBASIS=PM3 $END
 $DATA
Molecule specification
C1
C 6.000000 1.134051 0.580646 0.731228
O 8.000000 -0.029742 1.282828 0.265933
C 6.000000 -1.250727 0.744867 0.726089
O 8.000000 -2.305002 1.609853 0.306441
C 6.000000 -1.490083 -0.639041 0.059636
N 7.000000 -2.152325 -0.372889 -1.285649
C 6.000000 -0.187265 -1.401106 -0.199264
O 8.000000 0.157615 -1.209728 -1.602001
C 6.000000 0.902064 -0.961427 0.776083
O 8.000000 0.405895 -1.311343 2.086989
C 6.000000 2.316387 0.943948 -0.166268
O 8.000000 2.192819 0.331117 -1.442948
H 1.000000 1.299093 0.957139 1.765424
H 1.000000 -1.272588 0.671325 1.818064
H 1.000000 -2.206833 2.421917 0.847675
H 1.000000 -2.223050 -1.203974 0.642314
H 1.000000 -2.849725 -1.056790 -1.559367
H 1.000000 -0.392774 -2.458747 -0.133858
H 1.000000 1.042509 -0.793335 -1.629478
H 1.000000 1.825556 -1.495884 0.593890
H 1.000000 1.213972 -1.395619 2.677774
H 1.000000 3.298649 0.663478 0.261565
H 1.000000 2.371965 2.038368 -0.344793
H 1.000000 2.896557 0.723502 -2.018875
H 1.000000 -1.368116 -0.388431 -1.966790
H 1.000000 -2.538273 0.582920 -1.231213
 $END
