! ======================================================
!  Input file for FireFly
! ======================================================
 $CONTRL SCFTYP=RHF $END
 $CONTRL ICHARG=1 MULT=1 $END
 $BASIS GBASIS=PM3 $END
 $DATA
Molecule specification
C1
C 6.000000 1.121527 0.590987 0.731206
O 8.000000 -0.036884 1.296422 0.221749
C 6.000000 -1.238173 0.754336 0.724328
O 8.000000 -2.306356 1.614127 0.299074
C 6.000000 -1.498379 -0.636817 0.089679
N 7.000000 -2.192405 -0.400012 -1.246710
C 6.000000 -0.202272 -1.397539 -0.221997
O 8.000000 0.125621 -1.211190 -1.610287
C 6.000000 0.905230 -0.956028 0.746528
O 8.000000 0.439234 -1.305999 2.048743
C 6.000000 2.312446 0.998730 -0.134414
O 8.000000 2.269457 0.302672 -1.385978
H 1.000000 1.267953 0.974737 1.761166
H 1.000000 -1.222632 0.716121 1.820670
H 1.000000 -2.176685 2.418829 0.824242
H 1.000000 -2.203970 -1.206425 0.689108
H 1.000000 -2.920523 -1.097238 -1.435238
H 1.000000 -0.407236 -2.457841 -0.104951
H 1.000000 1.033189 -0.819762 -1.664991
H 1.000000 1.850405 -1.480406 0.559789
H 1.000000 1.087042 -1.884075 2.471970
H 1.000000 3.253304 0.711494 0.367041
H 1.000000 2.361276 2.067230 -0.347944
H 1.000000 3.003856 0.641054 -1.926482
H 1.000000 -1.455894 -0.504222 -1.965628
H 1.000000 -2.577739 0.563761 -1.224072
 $END
