! AM1 Opt
* xyz 1   1
 C      1.12957533660202     0.57641086109138     0.73800930979849
 O     -0.03652318486555     1.28766386728419     0.25070224070172
 C     -1.23902647797077     0.72945369338088     0.74313629848715
 O     -2.31118356425399     1.61040065447866     0.30571448435956
 C     -1.50943208619648    -0.63397991087982     0.06505358024026
 N     -2.14934692584605    -0.37011542561661    -1.28956964099351
 C     -0.18112175321408    -1.40221461821937    -0.22073190429712
 O      0.15582616290006    -1.20131335676596    -1.59921561334300
 C      0.89507996223456    -0.95637906831717     0.78835739492062
 O      0.41867641929511    -1.30745999702233     2.08817171400231
 C      2.31961368729189     0.94918509387764    -0.16679714455320
 O      2.20056633016133     0.32615670045602    -1.44758529587569
 H      1.34890691732064     0.97412489522770     1.74689050503992
 H     -1.23903293440453     0.67661469904497     1.83790845570262
 H     -2.21621530331922     2.42057530376460     0.85004591565847
 H     -2.23725118070049    -1.22941571359079     0.61281283759393
 H     -2.84874921709675    -1.05513260787165    -1.55026080722590
 H     -0.39275836423233    -2.45807816440434    -0.05685452118569
 H      1.04865204413434    -0.81099263730825    -1.64899734243296
 H      1.80809193427658    -1.51466613919685     0.60627495081610
 H      1.19740964687030    -1.40443270374941     2.71378585835476
 H      3.23124170289176     0.59934051755391     0.30934727888413
 H      2.33709017767126     2.02796553310744    -0.31128552435940
 H      2.91247423867231     0.72415291794424    -2.00917662403468
 H     -1.40202222847299    -0.37876263796292    -2.00933642312719
 H     -2.56923351613679     0.56894947907489    -1.27925155924657
*

