! ======================================================
!  Input file for FireFly
! ======================================================
 $CONTRL SCFTYP=RHF $END
 $CONTRL ICHARG=1 MULT=1 $END
 $BASIS GBASIS=PM3 $END
 $DATA
Molecule specification
C1
C 6.000000 1.129214 0.581453 0.728908
O 8.000000 -0.030914 1.286164 0.220080
C 6.000000 -1.257334 0.738712 0.731724
O 8.000000 -2.314338 1.606471 0.347495
C 6.000000 -1.508501 -0.644822 0.047415
N 7.000000 -2.171490 -0.371373 -1.285515
C 6.000000 -0.198881 -1.403174 -0.212375
O 8.000000 0.141279 -1.220145 -1.600252
C 6.000000 0.895511 -0.952869 0.773597
O 8.000000 0.415092 -1.294881 2.078247
C 6.000000 2.321599 0.966958 -0.148043
O 8.000000 2.245469 0.319067 -1.425760
H 1.000000 1.290980 0.956115 1.746867
H 1.000000 -1.241176 0.669200 1.826118
H 1.000000 -2.184660 2.408217 0.879951
H 1.000000 -2.243642 -1.208717 0.643421
H 1.000000 -2.808813 -1.115058 -1.546808
H 1.000000 -0.396884 -2.481153 -0.152232
H 1.000000 1.048961 -0.806159 -1.598119
H 1.000000 1.842597 -1.489118 0.597246
H 1.000000 1.188495 -1.389253 2.638903
H 1.000000 3.291488 0.665450 0.296544
H 1.000000 2.401464 2.060472 -0.305266
H 1.000000 2.961910 0.699310 -1.961228
H 1.000000 -1.407008 -0.337001 -1.985536
H 1.000000 -2.639855 0.544827 -1.238503
 $END
