! ======================================================
!  Input file for FireFly
! ======================================================
 $CONTRL SCFTYP=RHF $END
 $CONTRL ICHARG=1 MULT=1 $END
 $BASIS GBASIS=PM3 $END
 $DATA
Molecule specification
C1
C 6.000000 1.130530 0.573919 0.740982
O 8.000000 -0.026101 1.300070 0.269116
C 6.000000 -1.234018 0.733100 0.729486
O 8.000000 -2.301051 1.619626 0.298501
C 6.000000 -1.503726 -0.626469 0.062272
N 7.000000 -2.149648 -0.380244 -1.276846
C 6.000000 -0.172577 -1.400061 -0.218441
O 8.000000 0.153193 -1.233373 -1.598340
C 6.000000 0.900346 -0.957099 0.781744
O 8.000000 0.397549 -1.314509 2.068200
C 6.000000 2.308659 0.971679 -0.163162
O 8.000000 2.183805 0.336487 -1.439873
H 1.000000 1.342149 0.941361 1.745044
H 1.000000 -1.246395 0.671520 1.824045
H 1.000000 -2.190952 2.430253 0.839495
H 1.000000 -2.241079 -1.227119 0.613727
H 1.000000 -2.837267 -1.099071 -1.508126
H 1.000000 -0.414971 -2.477948 -0.068605
H 1.000000 1.034586 -0.796236 -1.612640
H 1.000000 1.832888 -1.531450 0.590212
H 1.000000 1.163767 -1.419096 2.705598
H 1.000000 3.246077 0.661107 0.299507
H 1.000000 2.372340 2.048979 -0.296863
H 1.000000 2.885537 0.725055 -2.020968
H 1.000000 -1.394059 -0.394223 -1.989257
H 1.000000 -2.585854 0.562783 -1.248274
 $END
