! AM1 Opt
* xyz 1   1
 C      1.13382647480473     0.58046484767786     0.73130115031520
 O     -0.03344370282984     1.28653915338644     0.22155154070849
 C     -1.25510085907969     0.73139349064008     0.73073999604877
 O     -2.31664847849284     1.60687098690534     0.34314013312414
 C     -1.50917489531323    -0.64328508609538     0.04639228675691
 N     -2.16847903242262    -0.36901640856409    -1.28790061928135
 C     -0.20241073805816    -1.40236234472315    -0.21531893593806
 O      0.14343553558277    -1.21624613411904    -1.59679328406427
 C      0.89495039161688    -0.95458960332573     0.77678619289772
 O      0.41642273658591    -1.29476039812712     2.07770961673670
 C      2.32227188922172     0.96516181793719    -0.14794836867161
 O      2.24149312481757     0.31937186330484    -1.42793347430223
 H      1.31843567372652     0.95749102330762     1.75238135278674
 H     -1.23157691177003     0.66660245950172     1.82473773160112
 H     -2.17308354963868     2.41080149257215     0.88777980608429
 H     -2.23353988666232    -1.19345688892066     0.65164305086899
 H     -2.81172677465824    -1.12678682376710    -1.53257300438573
 H     -0.37854288758537    -2.46648527674102    -0.13727567480811
 H      1.02845550071487    -0.81889194412536    -1.62989059426990
 H      1.82475881238900    -1.48297236792164     0.62402331189489
 H      1.22157353402483    -1.39602688849981     2.67436516026039
 H      3.28653757275597     0.66031459350567     0.29008812539971
 H      2.39789949801261     2.05821318845895    -0.29671968709410
 H      2.96946549752850     0.70392305588275    -1.97882683177230
 H     -1.40036770242583    -0.34350502425466    -1.98254086590836
 H     -2.63493680132547     0.55691761474009    -1.23526110879345
*

