! AM1 Opt
* xyz 1   1
 C      1.12409278723580     0.58028860846114     0.72879967889036
 O     -0.03385665930318     1.27541701974075     0.24566617662421
 C     -1.24996772707562     0.74028665935923     0.71978389295781
 O     -2.30682461017074     1.59633029903425     0.33021167006689
 C     -1.50626663407308    -0.63494517469074     0.05450825554764
 N     -2.16214798091175    -0.37186515695210    -1.28992243708663
 C     -0.18941586053854    -1.38698898887080    -0.20102345217534
 O      0.14916439349202    -1.20313350159557    -1.60687691768618
 C      0.90017988981750    -0.95269310237067     0.77954201295052
 O      0.41690018303522    -1.30208173498330     2.09891578086798
 C      2.32259389231814     0.94388220681432    -0.16080716845988
 O      2.21993299836220     0.32676418595442    -1.44003532342704
 H      1.27809580041017     0.96197356998984     1.73717386056097
 H     -1.25830631295310     0.65909677611180     1.81219701536672
 H     -2.19619652346727     2.41534948409514     0.85798660848188
 H     -2.24514542952106    -1.21290152228294     0.62886679046672
 H     -2.84676435355920    -1.05979129686074    -1.59490828954339
 H     -0.41563550925547    -2.46991196175872    -0.11470981425521
 H      1.04627075264145    -0.83240018483659    -1.61058455480130
 H      1.84381663818604    -1.50401484096635     0.57372456403794
 H      1.22687434841454    -1.39697959976731     2.68795925025969
 H      3.27456957569023     0.64491480807954     0.29634594958905
 H      2.38566690664640     2.02407871006818    -0.32565956752465
 H      2.94381841245776     0.71457633391066    -1.99367297761035
 H     -1.38493900824493    -0.35695792498483    -1.97701992481964
 H     -2.57467718919960     0.57297432059139    -1.24539698137827
*

