! ======================================================
!  Input file for FireFly
! ======================================================
 $CONTRL SCFTYP=RHF $END
 $CONTRL ICHARG=1 MULT=1 $END
 $BASIS GBASIS=PM3 $END
 $DATA
Molecule specification
C1
C 6.000000 1.118816 0.593088 0.732587
O 8.000000 -0.038507 1.294993 0.221278
C 6.000000 -1.235571 0.752830 0.723470
O 8.000000 -2.302782 1.610597 0.297599
C 6.000000 -1.500580 -0.636644 0.087229
N 7.000000 -2.194348 -0.394271 -1.246933
C 6.000000 -0.203054 -1.399251 -0.221679
O 8.000000 0.122019 -1.213148 -1.608042
C 6.000000 0.903091 -0.950842 0.746296
O 8.000000 0.444824 -1.306357 2.048124
C 6.000000 2.312983 1.000920 -0.131428
O 8.000000 2.267918 0.302639 -1.385652
H 1.000000 1.271181 0.966934 1.763439
H 1.000000 -1.237866 0.698223 1.821993
H 1.000000 -2.184043 2.444807 0.801473
H 1.000000 -2.215405 -1.212315 0.684674
H 1.000000 -2.906183 -1.089716 -1.442164
H 1.000000 -0.428083 -2.459228 -0.095278
H 1.000000 1.029224 -0.822679 -1.668149
H 1.000000 1.837143 -1.491167 0.550215
H 1.000000 1.100301 -1.882515 2.490039
H 1.000000 3.249322 0.729861 0.397855
H 1.000000 2.367558 2.093366 -0.354164
H 1.000000 3.008065 0.642641 -1.929333
H 1.000000 -1.454927 -0.509779 -1.989291
H 1.000000 -2.581439 0.546803 -1.207514
 $END
