! AM1 Opt
* xyz 1   1
 C      1.12871282998500     0.58078467173800     0.73176047716000
 O     -0.03182138712400     1.28456891373100     0.23160660653200
 C     -1.24548468721400     0.74248494029300     0.72421171838000
 O     -2.30764173680800     1.60903625132700     0.31758984852100
 C     -1.50589166754200    -0.63921247007900     0.06778882263900
 N     -2.19070733955500    -0.39712607644000    -1.26158845348800
 C     -0.19261829508800    -1.39198252009700    -0.22233302395400
 O      0.14161962143600    -1.19256840419400    -1.61031433601500
 C      0.89983046884900    -0.95245533788900     0.76750630803100
 O      0.41277676333700    -1.30920452582100     2.07125936290400
 C      2.32793485801400     0.96736396109600    -0.14833791961400
 O      2.25144326634600     0.31250035945600    -1.41673734474400
 H      1.31242129873200     0.96236714009000     1.74387746296600
 H     -1.23769444837800     0.68565532178600     1.81865981993400
 H     -2.18393086740700     2.42428123686900     0.84260111380600
 H     -2.21356097730200    -1.21292063341100     0.67472203339600
 H     -2.86022737808700    -1.12259829963000    -1.52278563346100
 H     -0.38311577409900    -2.46532032469800    -0.10440255676500
 H      1.04811761755000    -0.80204053133700    -1.66463212832700
 H      1.83287695703000    -1.50072368624500     0.59701609967800
 H      1.18467770270900    -1.41394482147700     2.66351409016000
 H      3.26448212697200     0.66211797652900     0.32854982862000
 H      2.34426219986200     2.04773498909100    -0.32463408483000
 H      2.97271280598400     0.69154254163000    -1.96044908365900
 H     -1.44049660928400    -0.36849784957500    -1.97541535357300
 H     -2.64086216641000     0.53254528797200    -1.22274363528500
*

