! ======================================================
!  Input file for FireFly
! ======================================================
 $CONTRL SCFTYP=RHF $END
 $CONTRL ICHARG=1 MULT=1 $END
 $BASIS GBASIS=PM3 $END
 $DATA
Molecule specification
C1
C 6.000000 1.131799 0.580120 0.735775
O 8.000000 -0.030452 1.281230 0.243661
C 6.000000 -1.260321 0.742531 0.734112
O 8.000000 -2.303892 1.596269 0.322215
C 6.000000 -1.507537 -0.641484 0.053011
N 7.000000 -2.159087 -0.367385 -1.294503
C 6.000000 -0.198206 -1.389136 -0.207117
O 8.000000 0.151101 -1.203111 -1.603273
C 6.000000 0.902711 -0.953217 0.785375
O 8.000000 0.421035 -1.305097 2.098424
C 6.000000 2.313351 0.947191 -0.156853
O 8.000000 2.215021 0.324225 -1.446388
H 1.000000 1.315850 0.950953 1.750798
H 1.000000 -1.258536 0.678697 1.827703
H 1.000000 -2.194390 2.399732 0.856339
H 1.000000 -2.229271 -1.194855 0.650466
H 1.000000 -2.840672 -1.077211 -1.562031
H 1.000000 -0.368830 -2.456337 -0.133790
H 1.000000 1.078613 -0.816422 -1.650493
H 1.000000 1.835964 -1.479372 0.630587
H 1.000000 1.190888 -1.392768 2.661825
H 1.000000 3.265011 0.622183 0.266116
H 1.000000 2.392586 2.028455 -0.304024
H 1.000000 2.922727 0.713271 -1.987229
H 1.000000 -1.375403 -0.375454 -1.973051
H 1.000000 -2.564868 0.581725 -1.249081
 $END
