! AM1 Opt
* xyz 1   1
 C      1.13469651650017     0.57974230355952     0.74232906493625
 O     -0.01732427099469     1.29105261533059     0.26863582410604
 C     -1.24127509290271     0.75643552074165     0.73244061574310
 O     -2.28126213826705     1.61166919442953     0.30797040605429
 C     -1.49237697175469    -0.63175394926952     0.06179136585178
 N     -2.16656320800563    -0.39170773080030    -1.28288146737587
 C     -0.19337513560451    -1.40414370425595    -0.22038303427165
 O      0.15428635842035    -1.25149169708743    -1.60961547022093
 C      0.90180872440188    -0.95651893421333     0.76927658830216
 O      0.39115508302402    -1.31614743836371     2.07200878308021
 C      2.32081066504812     0.97186972051342    -0.15825281485506
 O      2.18698081560388     0.35041966660248    -1.43940659478669
 H      1.36386134034097     0.96344836145957     1.75836324368465
 H     -1.25938507004128     0.70565961853150     1.82621753094405
 H     -2.16433334442105     2.43223365367075     0.83105464436681
 H     -2.19191985682365    -1.19317983085115     0.68056378361959
 H     -2.85442616253832    -1.09395663120654    -1.57912815900259
 H     -0.39103152937084    -2.45267380078266    -0.02326181377191
 H      1.04941652963838    -0.82660543972935    -1.66366971742264
 H      1.83002124675454    -1.49606590886280     0.62705122397043
 H      1.16207768006403    -1.43714639390090     2.69777920016739
 H      3.26317579176798     0.64699130845811     0.29002211098584
 H      2.30598522715550     2.05842569878390    -0.30559368721876
 H      2.90721769410511     0.75080653017800    -1.98945910466604
 H     -1.42484986873329    -0.35854133681902    -1.99949138213527
 H     -2.60258410135802     0.54827828649685    -1.25686378657577
*

