! ======================================================
!  Input file for FireFly
! ======================================================
 $CONTRL SCFTYP=RHF $END
 $CONTRL ICHARG=1 MULT=1 $END
 $BASIS GBASIS=PM3 $END
 $DATA
Molecule specification
C1
C 6.000000 1.131784 0.576245 0.736906
O 8.000000 -0.035423 1.288251 0.245942
C 6.000000 -1.244499 0.729882 0.745891
O 8.000000 -2.310131 1.607752 0.308203
C 6.000000 -1.511574 -0.635496 0.061837
N 7.000000 -2.149002 -0.368456 -1.290939
C 6.000000 -0.188983 -1.400404 -0.224313
O 8.000000 0.154647 -1.200620 -1.597175
C 6.000000 0.895861 -0.955004 0.790373
O 8.000000 0.423627 -1.307047 2.090698
C 6.000000 2.317913 0.951492 -0.164136
O 8.000000 2.204664 0.324369 -1.449236
H 1.000000 1.371102 0.969898 1.749452
H 1.000000 -1.236563 0.682403 1.841282
H 1.000000 -2.209731 2.407112 0.850272
H 1.000000 -2.238322 -1.226252 0.633975
H 1.000000 -2.852088 -1.067408 -1.547972
H 1.000000 -0.369713 -2.456781 -0.050652
H 1.000000 1.075276 -0.805280 -1.685533
H 1.000000 1.815799 -1.508873 0.636141
H 1.000000 1.164255 -1.400854 2.688095
H 1.000000 3.240835 0.563927 0.314033
H 1.000000 2.326242 2.054582 -0.304714
H 1.000000 2.906190 0.718207 -1.993640
H 1.000000 -1.403786 -0.376558 -2.010657
H 1.000000 -2.576815 0.575758 -1.286722
 $END
