#P B3LYP/aug-cc-pvdz
#  Units(Ang,Deg)

File generated by Gabedit
Quantum Mechanics Energy(kCal/mol) = 74.570964

1 1
C 1.133826 0.580465 0.731301
O -0.033444 1.286539 0.221552
C -1.255101 0.731393 0.730740
O -2.316648 1.606871 0.343140
C -1.509175 -0.643285 0.046392
N -2.168479 -0.369016 -1.287901
C -0.202411 -1.402362 -0.215319
O 0.143436 -1.216246 -1.596793
C 0.894950 -0.954590 0.776786
O 0.416423 -1.294760 2.077710
C 2.322272 0.965162 -0.147948
O 2.241493 0.319372 -1.427933
H 1.318436 0.957491 1.752381
H -1.231577 0.666602 1.824738
H -2.173084 2.410801 0.887780
H -2.233540 -1.193457 0.651643
H -2.811727 -1.126787 -1.532573
H -0.378543 -2.466485 -0.137276
H 1.028456 -0.818892 -1.629891
H 1.824759 -1.482972 0.624023
H 1.221574 -1.396027 2.674365
H 3.286538 0.660315 0.290088
H 2.397899 2.058213 -0.296720
H 2.969465 0.703923 -1.978827
H -1.400368 -0.343505 -1.982541
H -2.634937 0.556918 -1.235261

