#P B3LYP/aug-cc-pvdz
#  Units(Ang,Deg)

File generated by Gabedit
Quantum Mechanics Energy(kCal/mol) = 74.763634

1 1
C 1.128484 0.581091 0.734265
O -0.031345 1.277798 0.245143
C -1.257190 0.743428 0.726386
O -2.304280 1.594866 0.326694
C -1.505858 -0.638933 0.052850
N -2.160766 -0.369284 -1.292693
C -0.193695 -1.387541 -0.201517
O 0.149641 -1.203602 -1.606204
C 0.902665 -0.952954 0.782159
O 0.418507 -1.303791 2.099861
C 2.314632 0.943194 -0.158604
O 2.217796 0.325757 -1.443448
H 1.288129 0.957254 1.752863
H -1.262450 0.669267 1.819084
H -2.194784 2.410923 0.859084
H -2.240834 -1.203858 0.642663
H -2.849878 -1.077094 -1.581942
H -0.392822 -2.454691 -0.140089
H 1.065580 -0.823894 -1.618962
H 1.838474 -1.485165 0.598947
H 1.208447 -1.393001 2.667361
H 3.290161 0.638930 0.280834
H 2.403333 2.040822 -0.317420
H 2.930773 0.712111 -1.989016
H -1.376849 -0.368131 -1.968997
H -2.568736 0.584529 -1.241818

