! ======================================================
!  Input file for FireFly
! ======================================================
 $CONTRL SCFTYP=RHF $END
 $CONTRL ICHARG=1 MULT=1 $END
 $BASIS GBASIS=PM3 $END
 $DATA
Molecule specification
C1
C 6.000000 1.134655 0.577088 0.732565
O 8.000000 -0.036477 1.285170 0.224911
C 6.000000 -1.249393 0.724916 0.727611
O 8.000000 -2.318622 1.607694 0.339347
C 6.000000 -1.510180 -0.639059 0.047956
N 7.000000 -2.165597 -0.368520 -1.288935
C 6.000000 -0.204149 -1.399885 -0.219087
O 8.000000 0.143832 -1.212451 -1.593955
C 6.000000 0.892775 -0.954947 0.778477
O 8.000000 0.421237 -1.295498 2.081012
C 6.000000 2.328770 0.964487 -0.150194
O 8.000000 2.238189 0.321102 -1.430587
H 1.000000 1.344145 0.956556 1.734672
H 1.000000 -1.220770 0.661885 1.821725
H 1.000000 -2.168972 2.408345 0.886346
H 1.000000 -2.226699 -1.189885 0.654098
H 1.000000 -2.818534 -1.121134 -1.533408
H 1.000000 -0.371416 -2.477387 -0.092611
H 1.000000 1.054013 -0.811688 -1.677367
H 1.000000 1.828178 -1.500777 0.638337
H 1.000000 1.190708 -1.396816 2.670470
H 1.000000 3.259112 0.644423 0.293901
H 1.000000 2.368498 2.036531 -0.295781
H 1.000000 2.954743 0.698388 -1.977704
H 1.000000 -1.400100 -0.343725 -1.983448
H 1.000000 -2.624671 0.556899 -1.238413
 $END
