! AM1 Opt
* xyz 1   1
 C      1.11955053000000     0.60229804000000     0.70268928000000
 O     -0.05547727000000     1.25472586000000     0.22575293000000
 C     -1.23755346000000     0.71029963000000     0.76698248000000
 O     -2.27427977000000     1.57471455000000     0.40037897000000
 C     -1.54091229000000    -0.63785693000000     0.04958360000000
 N     -2.22955763000000    -0.35213414000000    -1.27522033000000
 C     -0.20792534000000    -1.39825681000000    -0.24291967000000
 O      0.10155113000000    -1.17346959000000    -1.58911290000000
 C      0.92280230000000    -0.93091975000000     0.70459743000000
 O      0.44107274000000    -1.24693194000000     1.99364397000000
 C      2.23129512000000     1.11072256000000    -0.22214250000000
 O      2.40457939000000     0.13757499000000    -1.23980419000000
 H      1.29052016000000     0.96032351000000     1.75215520000000
 H     -1.18671186000000     0.61878108000000     1.87642599000000
 H     -1.99913955000000     2.52475421000000     0.45993113000000
 H     -2.21157216000000    -1.25945015000000     0.69564894000000
 H     -2.70326218000000    -1.19252618000000    -1.63238993000000
 H     -0.36110683000000    -2.50217443000000    -0.15848499000000
 H      0.94987392000000    -0.64081289000000    -1.67928664000000
 H      1.87420848000000    -1.46414685000000     0.47475272000000
 H      1.05586573000000    -1.83321966000000     2.48730299000000
 H      3.19591067000000     1.20672130000000     0.31722047000000
 H      1.95315556000000     2.08279095000000    -0.67973414000000
 H      2.98721233000000     0.46973584000000    -1.95819470000000
 H     -1.49587482000000    -0.07059544000000    -1.96587616000000
 H     -2.90768950000000     0.42594927000000    -1.16053967000000
*

