! ======================================================
!  Input file for FireFly
! ======================================================
 $CONTRL SCFTYP=RHF $END
 $CONTRL ICHARG=1 MULT=1 $END
 $BASIS GBASIS=PM3 $END
 $DATA
Molecule specification
C1
C 6.000000 1.119551 0.602298 0.702689
O 8.000000 -0.055477 1.254726 0.225753
C 6.000000 -1.237553 0.710300 0.766982
O 8.000000 -2.274280 1.574715 0.400379
C 6.000000 -1.540912 -0.637857 0.049584
N 7.000000 -2.229558 -0.352134 -1.275220
C 6.000000 -0.207925 -1.398257 -0.242920
O 8.000000 0.101551 -1.173470 -1.589113
C 6.000000 0.922802 -0.930920 0.704597
O 8.000000 0.441073 -1.246932 1.993644
C 6.000000 2.231295 1.110723 -0.222142
O 8.000000 2.404579 0.137575 -1.239804
H 1.000000 1.290520 0.960324 1.752155
H 1.000000 -1.186712 0.618781 1.876426
H 1.000000 -1.999140 2.524754 0.459931
H 1.000000 -2.211572 -1.259450 0.695649
H 1.000000 -2.703262 -1.192526 -1.632390
H 1.000000 -0.361107 -2.502174 -0.158485
H 1.000000 0.949874 -0.640813 -1.679287
H 1.000000 1.874208 -1.464147 0.474753
H 1.000000 1.055866 -1.833220 2.487303
H 1.000000 3.195911 1.206721 0.317220
H 1.000000 1.953156 2.082791 -0.679734
H 1.000000 2.987212 0.469736 -1.958195
H 1.000000 -1.495875 -0.070595 -1.965876
H 1.000000 -2.907690 0.425949 -1.160540
 $END
