#P B3LYP/6-31+G*
#  Units(Ang,Deg)

File generated by Gabedit
Quantum Mechanics Energy(kCal/mol) = -159.471480

1 1
C -1.417678 1.088720 0.125422
O -1.609447 0.204932 -0.973659
C -1.267624 -1.129793 -0.703075
O -1.613263 -1.940372 -1.773285
C 0.292593 -1.149893 -0.527007
C 0.644180 -0.291170 0.705671
O 2.051815 -0.284720 0.739395
C 0.079601 1.130229 0.502544
O 0.185317 1.703591 1.795036
C -1.936657 2.434423 -0.423180
O -2.199696 3.216293 0.724765
H -2.037558 0.765808 0.994738
H -1.825907 -1.539293 0.166498
H 0.763935 -0.698119 -1.446260
H 0.284462 -0.736432 1.662995
H 2.378653 0.439339 1.325992
H 0.687378 1.706212 -0.234084
H -2.904622 2.295444 -0.947631
H -1.212091 2.925067 -1.093994
H -1.871424 4.135721 0.592040
C -1.722790 -1.295254 -3.037729
H -1.911376 -2.140783 -3.713661
H -0.801911 -0.771135 -3.303029
H -2.578814 -0.607108 -3.033196
N 0.764381 -2.528203 -0.333637
H 0.143961 -3.161583 0.178280
C 1.940914 -2.933180 -0.784548
O 2.604626 -2.016393 -1.484854
C 2.501114 -4.280199 -0.572398
H 2.838679 -4.756292 -1.517680
H 1.799085 -5.004930 -0.115125
H 3.386766 -4.260961 0.101422
C 0.247327 3.077294 1.874296
O 0.410561 3.749012 0.892601
C 0.118398 3.485680 3.292143
H 0.718264 4.389478 3.502955
H 0.422521 2.699002 4.001227
H -0.936334 3.731318 3.525781
H 3.534391 -2.302838 -1.756710

