#P B3LYP/6-31+G*
#  Units(Ang,Deg)

File generated by Gabedit
Quantum Mechanics Energy(kCal/mol) = 19.889992

1 1
C -1.468076 1.543011 -0.357673
O -1.659384 0.480530 -1.315856
C -1.205108 -0.811458 -0.848830
O -1.591658 -1.866847 -1.770653
C 0.329462 -0.816065 -0.605871
C 0.757963 0.425500 0.221443
O 2.152805 0.615362 0.025174
C 0.053000 1.744831 -0.196659
O 0.258674 2.739688 0.843357
C -2.181770 2.803818 -0.898559
O -2.404246 3.758917 0.144786
H -1.919404 1.243228 0.593178
H -1.730560 -1.013207 0.097081
H 0.843675 -0.779242 -1.569500
H 0.556620 0.234502 1.279461
H 2.539076 0.769718 0.895483
H 0.456657 2.107216 -1.147126
H -3.152496 2.514829 -1.310278
H -1.589423 3.260012 -1.696328
H -1.551074 4.141447 0.423562
C -1.197168 -1.720056 -3.156730
H -1.601524 -2.562150 -3.723898
H -0.107934 -1.723839 -3.238995
H -1.599836 -0.787198 -3.559888
N 0.659497 -2.097957 0.052831
H -0.147593 -2.668220 0.256331
C 1.860477 -2.720147 0.162632
O 3.005803 -2.083544 0.128411
C 1.908619 -4.142987 0.670810
H 2.781731 -4.663213 0.269614
H 1.012981 -4.689383 0.365452
H 1.967173 -4.150930 1.761538
C 1.343509 3.547945 0.834325
O 2.165953 3.614862 -0.059083
C 1.348968 4.478804 2.024290
H 2.250336 5.096129 2.027771
H 1.316225 3.903100 2.952182
H 0.474109 5.132353 1.994597
H 2.849576 -1.123848 0.090619

