#P B3LYP/6-31+G*
#  Units(Ang,Deg)

File generated by Gabedit
Quantum Mechanics Energy(kCal/mol) = -170.288150

1 1
C -1.439791 1.069578 0.137817
O -1.649092 0.214414 -0.978919
C -1.207740 -1.093369 -0.748820
O -1.631686 -1.935849 -1.763879
C 0.379949 -1.054440 -0.749842
C 0.810595 -0.142671 0.402944
O 2.189166 0.148386 0.140906
C 0.078018 1.216780 0.365575
O 0.271153 1.714557 1.676559
C -2.106592 2.392080 -0.293728
O -2.179774 3.157214 0.892341
H -1.946173 0.666052 1.046273
H -1.628511 -1.531898 0.183599
H 0.735308 -0.613991 -1.725998
H 0.733905 -0.625228 1.404805
H 2.567287 0.746729 0.839034
H 0.547818 1.895225 -0.391118
H -3.147745 2.214038 -0.632812
H -1.539554 2.913008 -1.083232
H -1.953740 4.098668 0.704959
C -1.857802 -1.331209 -3.033985
H -2.103667 -2.198993 -3.662812
H -0.967408 -0.813236 -3.397358
H -2.714449 -0.646611 -2.973447
N 0.812894 -2.462523 -0.676850
H 0.079159 -3.117411 -1.010657
C 2.032235 -2.940882 -0.403312
O 3.035164 -2.207694 -0.041794
C 2.331242 -4.390448 -0.483722
H 2.885919 -4.636730 -1.416209
H 1.445865 -5.047159 -0.448508
H 3.004872 -4.715288 0.341063
C 0.267288 3.088363 1.841613
O 0.379064 3.819392 0.897308
C 0.159726 3.398455 3.283911
H 0.764045 4.285361 3.549178
H 0.467746 2.565524 3.936334
H -0.892084 3.631301 3.547066
H 2.852434 -1.149255 0.041830

