#P B3LYP/6-31+G*
#  Units(Ang,Deg)

File generated by Gabedit
Quantum Mechanics Energy(kCal/mol) = 15.579078

1 1
C -1.424241 1.413741 -0.570488
O -1.298736 0.263868 -1.443354
C -0.977535 -0.986943 -0.793645
O -1.021923 -2.092546 -1.736474
C 0.417417 -0.857964 -0.141480
C 0.371740 0.288210 0.894540
O 1.678962 0.520327 1.411585
C -0.119088 1.606293 0.250162
O -0.397633 2.546496 1.326177
C -1.705605 2.613939 -1.504108
O -1.669088 3.846995 -0.789225
H -2.270630 1.252709 0.103548
H -1.745878 -1.180854 -0.029937
H 1.137082 -0.585216 -0.918459
H -0.298064 0.007396 1.712502
H 2.159522 1.014394 0.722289
H 0.651885 2.007711 -0.414673
H -2.687061 2.494330 -1.970398
H -0.947386 2.644861 -2.291432
H -0.824558 3.858310 -0.295742
C -0.195963 -1.990018 -2.922058
H -0.372805 -2.869489 -3.546192
H 0.859109 -1.957100 -2.639557
H -0.462106 -1.089797 -3.482117
N 0.834108 -2.137341 0.455562
H 0.094319 -2.752004 0.760234
C 2.111120 -2.564472 0.583834
O 3.116918 -1.811001 0.215223
C 2.419683 -3.919759 1.177265
H 3.367051 -4.303161 0.790715
H 1.631453 -4.633983 0.927676
H 2.490919 -3.844492 2.264550
C 0.554846 3.396908 1.775188
O 1.659317 3.540364 1.286259
C 0.036214 4.268057 2.895109
H 0.826061 4.920916 3.273948
H -0.328095 3.647134 3.716783
H -0.790931 4.886120 2.538428
H 2.749873 -0.957174 -0.081165

