#P B3LYP/6-31+G*
#  Units(Ang,Deg)

File generated by Gabedit
Quantum Mechanics Energy(kCal/mol) = -170.340890

1 1
C -1.455987 1.074656 0.121150
O -1.649795 0.212169 -0.992623
C -1.208532 -1.093936 -0.750182
O -1.628185 -1.944798 -1.759904
C 0.378162 -1.048623 -0.747362
C 0.798983 -0.135816 0.408548
O 2.175489 0.166250 0.148257
C 0.057489 1.219371 0.377988
O 0.216962 1.697266 1.700633
C -2.110180 2.396203 -0.335478
O -2.093142 3.225996 0.807441
H -1.979087 0.678789 1.022794
H -1.631166 -1.524806 0.184673
H 0.734537 -0.605765 -1.721943
H 0.726497 -0.623158 1.408685
H 2.548970 0.768315 0.845396
H 0.539183 1.910460 -0.360299
H -3.176094 2.234759 -0.598300
H -1.581128 2.854714 -1.186962
H -1.784559 4.132466 0.569205
C -1.885222 -1.341725 -3.025079
H -2.153142 -2.208937 -3.645503
H -0.999970 -0.830604 -3.409805
H -2.735091 -0.650684 -2.944942
N 0.819787 -2.453901 -0.671807
H 0.090879 -3.114367 -1.003862
C 2.042134 -2.922693 -0.395822
O 3.040859 -2.182627 -0.038241
C 2.347509 -4.371377 -0.467981
H 2.621947 -4.683553 -1.497643
H 1.520703 -5.024445 -0.138347
H 3.228489 -4.636173 0.159907
C 0.280951 3.067473 1.879685
O 0.481835 3.798476 0.950568
C 0.122383 3.374135 3.318306
H 0.744582 4.239466 3.611653
H 0.376420 2.528552 3.977523
H -0.931228 3.641142 3.539085
H 2.850777 -1.126540 0.045089

