#P B3LYP/6-31+G*
#  Units(Ang,Deg)

File generated by Gabedit
Quantum Mechanics Energy(kCal/mol) = -159.480150

1 1
C -1.414724 1.083849 0.123469
O -1.605294 0.202707 -0.977844
C -1.275557 -1.134860 -0.706368
O -1.620117 -1.941503 -1.779655
C 0.282866 -1.166920 -0.517763
C 0.628735 -0.314477 0.721267
O 2.035819 -0.322498 0.771774
C 0.079594 1.112073 0.513759
O 0.176879 1.686331 1.806619
C -1.915833 2.434754 -0.429083
O -2.157520 3.229069 0.714932
H -2.044902 0.765830 0.987021
H -1.843402 -1.541102 0.158700
H 0.766265 -0.716374 -1.431315
H 0.253398 -0.758610 1.673140
H 2.363070 0.397358 1.363100
H 0.698978 1.682047 -0.217815
H -2.890162 2.309272 -0.944921
H -1.188416 2.908387 -1.109059
H -1.802998 4.138120 0.578195
C -1.709086 -1.295293 -3.045286
H -1.901730 -2.138579 -3.722912
H -0.779027 -0.783029 -3.301514
H -2.556156 -0.596185 -3.049552
N 0.743124 -2.549276 -0.324890
H 0.099980 -3.188963 0.149585
C 1.937138 -2.949817 -0.732819
O 2.628433 -2.025939 -1.395284
C 2.487599 -4.299814 -0.513374
H 2.859789 -4.766952 -1.449966
H 1.768757 -5.028023 -0.089422
H 3.347534 -4.288426 0.192900
C 0.259160 3.059204 1.882376
O 0.458648 3.723841 0.901882
C 0.101390 3.477295 3.294220
H 0.703079 4.377858 3.513446
H 0.382861 2.692746 4.014631
H -0.956595 3.732479 3.501976
H 3.570616 -2.307964 -1.626737

