#P B3LYP/6-31+G*
#  Units(Ang,Deg)

File generated by Gabedit
Quantum Mechanics Energy(kCal/mol) = 21.610874

1 1
C -1.348187 1.552027 -0.686568
O -1.526218 0.535500 -1.698876
C -1.091484 -0.786280 -1.299386
O -1.482395 -1.785100 -2.280347
C 0.440975 -0.811968 -1.052284
C 0.840202 0.346557 -0.108946
O 2.228415 0.578376 -0.253070
C 0.164908 1.701449 -0.421781
O 0.345527 2.557154 0.741845
C -1.964158 2.859813 -1.232984
O -1.849113 3.915612 -0.276246
H -1.869370 1.243377 0.224612
H -1.623528 -1.034260 -0.368292
H 0.959037 -0.673744 -2.004712
H 0.615262 0.060310 0.922610
H 2.494028 1.005022 0.565711
H 0.623302 2.159745 -1.303707
H -3.020920 2.698864 -1.461867
H -1.448377 3.151435 -2.151927
H -0.917493 3.941779 0.027935
C -1.063899 -1.573640 -3.650680
H -1.475273 -2.376747 -4.267205
H 0.026326 -1.594812 -3.716414
H -1.442383 -0.613022 -4.009629
N 0.789947 -2.147196 -0.520099
H 0.017720 -2.796566 -0.523019
C 2.013876 -2.694488 -0.303117
O 3.083861 -1.982585 -0.036565
C 2.102087 -4.162438 0.046896
H 1.328805 -4.728375 -0.478161
H 1.966929 -4.301694 1.121904
H 3.076537 -4.566081 -0.238467
C 1.413209 3.381917 0.848026
O 2.241651 3.578945 -0.020308
C 1.387216 4.155368 2.145516
H 2.279829 4.777845 2.242092
H 1.347953 3.467148 2.993041
H 0.504000 4.797169 2.182986
H 2.862913 -1.025567 -0.018402

