#P B3LYP/6-31+G*
#  Units(Ang,Deg)

File generated by Gabedit
Quantum Mechanics Energy(kCal/mol) = -170.798430

1 1
C -1.508844 1.092244 0.114966
O -1.682983 0.210452 -0.985871
C -1.239367 -1.088543 -0.710232
O -1.673645 -1.971622 -1.684390
C 0.344101 -1.029370 -0.724970
C 0.773656 -0.098117 0.413581
O 2.131739 0.230487 0.094684
C -0.001492 1.238876 0.412944
O 0.091117 1.680909 1.754971
C -2.134312 2.413826 -0.391559
O -1.724805 3.429016 0.490230
H -2.055230 0.711537 1.007930
H -1.648598 -1.493353 0.242243
H 0.685489 -0.591305 -1.707558
H 0.755692 -0.584685 1.416783
H 2.508573 0.888619 0.735183
H 0.484444 1.959059 -0.295069
H -3.240747 2.387166 -0.307761
H -1.853001 2.628424 -1.436803
H -1.053196 4.018615 0.073177
C -1.859863 -1.433021 -2.989405
H -2.186998 -2.315697 -3.558164
H -0.927964 -1.024420 -3.385963
H -2.651615 -0.672055 -2.977975
N 0.805363 -2.427489 -0.641212
H 0.075268 -3.101970 -0.940940
C 2.045095 -2.869789 -0.399050
O 3.038681 -2.105853 -0.078382
C 2.384851 -4.310772 -0.475595
H 2.754300 -4.586385 -1.487080
H 1.550525 -4.991507 -0.234964
H 3.220090 -4.571087 0.213897
C 0.405705 3.008900 1.973776
O 0.897738 3.667881 1.098384
C 0.090809 3.364716 3.373035
H 0.813378 4.100183 3.772552
H 0.065489 2.498804 4.053828
H -0.912597 3.837592 3.424065
H 2.833835 -1.053256 -0.003150

