#P B3LYP/6-31+G*
#  Units(Ang,Deg)

File generated by Gabedit
Quantum Mechanics Energy(kCal/mol) = 22.280782

1 1
C -1.556598 1.405737 0.005172
O -1.699449 0.823704 -1.308338
C -1.153191 -0.512914 -1.405446
O -1.502853 -1.133132 -2.672612
C 0.385058 -0.504004 -1.191372
C 0.772077 0.327720 0.057965
O 2.106943 0.780324 -0.121288
C -0.050268 1.616545 0.270797
O 0.139495 2.015539 1.656302
C -2.360797 2.723603 0.055640
O -1.745557 3.722035 -0.760275
H -1.971219 0.709778 0.740490
H -1.633410 -1.115005 -0.619024
H 0.855564 -0.042642 -2.063168
H 0.700943 -0.303306 0.948732
H 2.452555 0.957229 0.757902
H 0.341594 2.382769 -0.404369
H -2.404909 3.083822 1.086663
H -3.381374 2.545963 -0.293464
H -0.823435 3.821831 -0.447020
C -1.174490 -0.409431 -3.883505
H -1.539583 -0.982030 -4.739748
H -0.091863 -0.291176 -3.967668
H -1.658590 0.570572 -3.872179
N 0.833489 -1.911555 -1.121401
H 0.120706 -2.576666 -1.381396
C 2.089599 -2.413707 -1.003701
O 3.080525 -1.746518 -0.461454
C 2.290095 -3.907700 -1.117369
H 1.583354 -4.335838 -1.832314
H 2.134661 -4.383039 -0.146168
H 3.303263 -4.132787 -1.458963
C 0.352506 3.309007 1.992306
O 0.505365 4.227683 1.210511
C 0.489110 3.477474 3.487408
H 0.662840 4.525227 3.743736
H 1.325886 2.881388 3.858713
H -0.421608 3.140969 3.988089
H 2.781729 -0.848385 -0.203549

