#P B3LYP/6-31+G*
#  Units(Ang,Deg)

File generated by Gabedit
Quantum Mechanics Energy(kCal/mol) = -170.419230

1 1
C -1.479356 1.068754 0.110480
O -1.652272 0.195543 -0.998017
C -1.209351 -1.104804 -0.734455
O -1.626015 -1.979120 -1.726297
C 0.375712 -1.037894 -0.734127
C 0.786868 -0.125150 0.425877
O 2.155402 0.203382 0.159281
C 0.024466 1.218310 0.419283
O 0.122358 1.658328 1.761338
C -2.097909 2.391856 -0.392171
O -1.848641 3.339680 0.619705
H -2.030076 0.681740 0.998614
H -1.630441 -1.522690 0.207351
H 0.722752 -0.588270 -1.709152
H 0.727631 -0.626098 1.421090
H 2.524293 0.809238 0.855678
H 0.520325 1.938796 -0.280515
H -3.201013 2.306842 -0.470735
H -1.680695 2.693902 -1.369074
H -1.333281 4.105297 0.272992
C -1.901119 -1.401448 -2.998955
H -2.194673 -2.277300 -3.596133
H -1.015511 -0.912074 -3.409201
H -2.738635 -0.695931 -2.919003
N 0.838803 -2.435957 -0.658769
H 0.114083 -3.108550 -0.978029
C 2.071386 -2.879462 -0.398936
O 3.065081 -2.127819 -0.062024
C 2.389652 -4.327614 -0.470998
H 2.677381 -4.627734 -1.500776
H 1.560970 -4.986094 -0.156267
H 3.264078 -4.583237 0.169054
C 0.336190 3.004549 1.991911
O 0.733739 3.725311 1.115677
C 0.055787 3.303752 3.412128
H 0.733259 4.082547 3.806107
H 0.127878 2.423366 4.068146
H -0.975171 3.694232 3.525272
H 2.860815 -1.074208 0.027438

