#P B3LYP/6-31+G*
#  Units(Ang,Deg)

File generated by Gabedit
Quantum Mechanics Energy(kCal/mol) = 14.863187

1 1
C -1.610263 1.624099 -0.170953
O -1.792237 0.507335 -1.076178
C -1.205307 -0.740688 -0.630945
O -1.542234 -1.831419 -1.530455
C 0.327911 -0.568906 -0.503197
C 0.630103 0.607100 0.455932
O 2.036717 0.856148 0.510003
C -0.087586 1.890574 -0.019068
O 0.149618 2.910971 0.988743
C -2.390562 2.817100 -0.764205
O -2.681917 3.779748 0.249490
H -2.041205 1.351050 0.797132
H -1.643964 -0.985255 0.348336
H 0.722736 -0.302705 -1.487005
H 0.277430 0.352687 1.459727
H 2.384334 0.430025 1.313255
H 0.339452 2.196334 -0.978806
H -3.336685 2.459598 -1.179508
H -1.813542 3.284275 -1.566572
H -1.838270 4.123968 0.594882
C -1.204754 -1.669571 -2.929510
H -1.565963 -2.543471 -3.477376
H -0.120757 -1.596720 -3.045635
H -1.685565 -0.771001 -3.324831
N 0.957265 -1.824572 -0.061234
H 0.467048 -2.341733 0.653021
C 2.130321 -2.324654 -0.514511
O 2.790124 -1.737205 -1.481138
C 2.655953 -3.649023 -0.010054
H 2.943565 -4.288214 -0.848154
H 1.894426 -4.169881 0.575419
H 3.531181 -3.487717 0.623104
C 0.371684 4.197822 0.633669
O 0.421446 4.617931 -0.506580
C 0.567689 5.081350 1.843310
H 0.747339 6.115761 1.541230
H 1.421590 4.733201 2.429007
H -0.320319 5.050529 2.478826
H 3.561681 -2.296562 -1.691196

