#P B3LYP/6-31+G*
#  Units(Ang,Deg)

File generated by Gabedit
Quantum Mechanics Energy(kCal/mol) = 19.695080

1 1
C -1.439816 1.577558 -0.442792
O -1.625631 0.514802 -1.401829
C -1.179567 -0.778288 -0.929946
O -1.560078 -1.832985 -1.855045
C 0.352548 -0.786489 -0.672286
C 0.774031 0.452324 0.162710
O 2.172067 0.639777 -0.011069
C 0.080216 1.773609 -0.265071
O 0.280444 2.768123 0.776471
C -2.140619 2.840816 -0.993480
O -2.344900 3.807897 0.041935
H -1.903065 1.281585 0.503500
H -1.714609 -0.978228 0.010962
H 0.876447 -0.747742 -1.630613
H 0.555707 0.261310 1.217358
H 2.546412 0.777013 0.867422
H 0.496021 2.132675 -1.211548
H -3.116430 2.560646 -1.399200
H -1.544658 3.281765 -1.797110
H -1.479732 4.136011 0.351735
C -1.150314 -1.688643 -3.236904
H -1.551858 -2.529565 -3.807797
H -0.060279 -1.696697 -3.307487
H -1.545062 -0.754499 -3.644883
N 0.674272 -2.070175 -0.013306
H -0.135232 -2.638408 0.186243
C 1.873888 -2.692829 0.105727
O 3.018761 -2.055871 0.072251
C 1.919650 -4.114305 0.617875
H 2.794288 -4.635756 0.221635
H 1.025121 -4.661306 0.310374
H 1.973788 -4.119302 1.708847
C 1.366088 3.575384 0.774379
O 2.194983 3.640639 -0.113186
C 1.364496 4.506718 1.963974
H 2.266010 5.123777 1.972764
H 1.325829 3.931399 2.891875
H 0.490045 5.160534 1.928604
H 2.859332 -1.096649 0.027620

