#P B3LYP/6-31+G*
#  Units(Ang,Deg)

File generated by Gabedit
Quantum Mechanics Energy(kCal/mol) = -170.744020

1 1
C -1.541962 1.074825 0.099714
O -1.689116 0.202079 -1.012429
C -1.245549 -1.098352 -0.747047
O -1.640207 -1.964592 -1.753416
C 0.337406 -1.033598 -0.717535
C 0.739984 -0.100086 0.429153
O 2.100471 0.241414 0.133387
C -0.042599 1.232434 0.425419
O 0.024838 1.658174 1.774648
C -2.176256 2.392283 -0.408588
O -1.754304 3.430063 0.435276
H -2.097614 0.679280 0.979820
H -1.682026 -1.523148 0.184382
H 0.701697 -0.600580 -1.694435
H 0.705981 -0.590097 1.430188
H 2.482436 0.857777 0.811434
H 0.452286 1.962810 -0.264948
H -3.279732 2.369267 -0.291215
H -1.925373 2.584345 -1.466537
H -1.002951 3.935909 0.044156
C -1.838910 -1.387706 -3.040786
H -2.069473 -2.268740 -3.656983
H -0.940934 -0.876223 -3.394395
H -2.697302 -0.703003 -3.014470
N 0.801382 -2.429315 -0.608409
H 0.074880 -3.115829 -0.885627
C 2.047079 -2.859476 -0.372916
O 3.037802 -2.080588 -0.081310
C 2.385494 -4.302321 -0.410072
H 2.171925 -4.771692 -1.389748
H 1.848624 -4.889860 0.359931
H 3.470381 -4.473235 -0.220716
C 0.356386 2.975012 2.025269
O 0.832210 3.658600 1.159666
C 0.086451 3.284239 3.445123
H 0.849755 3.969337 3.858417
H 0.038592 2.391217 4.088985
H -0.892325 3.798315 3.543506
H 2.816596 -1.030458 0.000970

