#P B3LYP/6-31+G*
#  Units(Ang,Deg)

File generated by Gabedit
Quantum Mechanics Energy(kCal/mol) = 14.758502

1 1
C -1.630055 1.630949 -0.162984
O -1.786246 0.501129 -1.056733
C -1.180179 -0.730976 -0.592252
O -1.487137 -1.837415 -1.483229
C 0.348403 -0.529896 -0.449939
C 0.621042 0.665568 0.493655
O 2.022070 0.940088 0.557672
C -0.113607 1.927931 -0.008858
O 0.101862 2.971401 0.980215
C -2.429585 2.803829 -0.769340
O -2.731787 3.771497 0.236011
H -2.059144 1.359876 0.806496
H -1.624518 -0.973270 0.385022
H 0.749025 -0.270923 -1.433271
H 0.262611 0.421319 1.497935
H 2.385594 0.450864 1.316033
H 0.313117 2.222155 -0.972338
H -3.370823 2.428069 -1.179558
H -1.859838 3.271162 -1.576805
H -1.890768 4.090998 0.611034
C -1.137212 -1.684603 -2.880256
H -1.477198 -2.570448 -3.422480
H -0.053440 -1.594169 -2.985562
H -1.629109 -0.798790 -3.290448
N 0.995579 -1.766997 0.017815
H 0.518112 -2.270299 0.750368
C 2.170351 -2.265583 -0.432720
O 2.815974 -1.695909 -1.419378
C 2.716971 -3.568522 0.104186
H 3.025092 -4.219461 -0.717424
H 1.960117 -4.091854 0.693492
H 3.582729 -3.376668 0.741829
C 0.310497 4.253572 0.600516
O 0.361558 4.651331 -0.547686
C 0.482790 5.164805 1.793085
H 0.653474 6.194675 1.470919
H 1.334333 4.839555 2.395134
H -0.411702 5.136756 2.419569
H 3.591993 -2.252065 -1.621565

