! ======================================================
!  Input file for FireFly
! ======================================================
 $CONTRL SCFTYP=RHF $END
 $CONTRL ICHARG=0 MULT=1 $END
 $BASIS GBASIS=PM3 $END
 $DATA
Molecule specification
C1
Ba 56.000000 0.000000 0.000000 0.000000
Ba 56.000000 -0.054718 0.555591 2.399921
 $END
