! ======================================================
!  Input file for FireFly
! ======================================================
 $CONTRL SCFTYP=RHF $END
 $CONTRL ICHARG=0 MULT=1 $END
 $BASIS GBASIS=PM3 $END
 $DATA
Molecule specification
C1
Ba 56.000000 0.024646 -0.250243 -1.080947
Ba 56.000000 -0.079364 0.805834 3.480868
 $END
