! AM1 Opt
* xyz 0   1
 Ba      0.00000000000000     0.00000000000000     0.00000000000000
 Ba     -0.05471828691900     0.55559054961045     2.39992108394357
*

