! AM1 Opt
* xyz 0   1
 Ba      0.02464561985437    -0.25024309515850    -1.08094653626355
 Ba     -0.07936390677337     0.80583364476895     3.48086762020713
*

