! ======================================================
!  Input file for FireFly
! ======================================================
 $CONTRL SCFTYP=RHF $END
 $CONTRL ICHARG=0 MULT=1 $END
 $BASIS GBASIS=PM3 $END
 $DATA
Molecule specification
C1
Ba 56.000000 1.898189 2.380827 1.780240
Ba 56.000000 1.499887 2.280835 -2.596292
Ba 56.000000 -0.551022 -0.729754 -0.129819
 $END
