! AM1 Opt
* xyz 0   1
 Ba      1.89818885209427     2.38082708138872     1.78024008365141
 Ba      1.49988676427574     2.28083507189238    -2.59629164520896
 Ba     -0.55102223844578    -0.72975390635206    -0.12981852317885
*

