! ======================================================
!  Input file for FireFly
! ======================================================
 $CONTRL SCFTYP=RHF $END
 $CONTRL ICHARG=0 MULT=1 $END
 $BASIS GBASIS=PM3 $END
 $DATA
Molecule specification
C1
N 7.000000 -0.000005 -0.092236 0.279576
H 1.000000 -0.000003 0.283476 0.126980
H 1.000000 0.274401 -0.157120 -0.051251
H 1.000000 -0.274398 -0.157120 -0.051260
 $END
