! AM1 Opt
* xyz 0   1
 N     -0.00000459481913    -0.09223550840341     0.27957613562482
 H     -0.00000328202998     0.28347561168892     0.12697991144402
 H      0.27440052187617    -0.15712003056532    -0.05125107671974
 H     -0.27439798502169    -0.15712021792859    -0.05125951044484
*

