! ======================================================
!  Input file for FireFly
! ======================================================
 $CONTRL SCFTYP=RHF $END
 $CONTRL ICHARG=0 MULT=1 $END
 $BASIS GBASIS=PM3 $END
 $DATA
Molecule specification
C1
H 1.000000 0.594297 -0.428285 -0.201710
H 1.000000 0.130625 0.934104 -0.671603
O 8.000000 0.575078 0.494182 0.053078
 $END
