! AM1 Opt
* xyz 0   1
 H      0.59429717478730    -0.42828510937583    -0.20171046679635
 H      0.13062499200238     0.93410425077364    -0.67160250747689
 O      0.57507783321032     0.49418185860219     0.05307797427324
*

