! ======================================================
!  Input file for FireFly
! ======================================================
 $CONTRL SCFTYP=RHF $END
 $CONTRL ICHARG=0 MULT=1 $END
 $BASIS GBASIS=PM3 $END
 $DATA
Molecule specification
C1
H 1.000000 0.932968 -0.310415 -0.304422
H 1.000000 0.414693 1.058467 -0.691006
O 8.000000 0.535395 0.479597 0.061704
 $END
