! AM1 Opt
* xyz 0   1
 H      0.93296813718509    -0.31041541395512    -0.30442198118615
 H      0.41469256103737     1.05846688305184    -0.69100556737190
 O      0.53539549667836     0.47959685630717     0.06170429174998
*

