%chk=h2oFreq
#P HF/6-31G Opt Freq(SaveNM)

H2O Opt freq

0 1
O 0.0 0.0  0.0
H 0.0 1.0  1.0
H 0.0 1.0 -1.0

