! HF 6-31G Opt Freq

*xyz 0 1
  O      0.000000    0.310562    0.000000
  H      0.000000    0.844719    0.785159
  H      0.000000    0.844719   -0.785159
*

