#P PM3 Opt Freq

TEST

0   1
 H      0.60132965805800    -0.46545175846500    -0.19980981368700
 H      0.14511594727900     0.93249505063700    -0.64394224108000
 O      0.56819278419900     0.48990979453300     0.03834110227600

