# BLYP/6-31G** Opt Freq

Gaussian file generated by cchemi

0 1
C     0.0 0.0 0.0
O     0.0 0.0 1.16

