# BLYP/6-311G* Opt Freq

Gaussian file generated by cchemi

0 1
H 0     0.60000000000000    -0.44453900000000    -0.19577200000000
H 0     0.10000000000000     0.97655000000000    -0.71769400000000
O 0     0.60000000000000     0.46799000000000     0.09323100000000

