# BLYP/6-31G** Opt Freq

Gaussian file generated by cchemi

0 2
H 0     0.0 0.0 0.0
S 0     0.0 0.0 0.9

