 $CONTRL RUNTYP=ENERGY $END
 $STATPT OPTTOL=1.0E-5  $END
 $BASIS  GBASIS=STO NGAUSS=2 $END
 $DATA
Molecule
C1
H 1.0  0.758587000000 -0.469377000000 0.000000000000
H 1.0 -0.758587000000 -0.469377000000 0.000000000000
O 8.0 0.000000000000 0.117344000000 0.000000000000
 $END
