 $CONTRL RUNTYP=OPTIMIZE $END
 $STATPT  HSSEND=.T. OptTol=1e-5 NStep=500 $END
 $STATPT OPTTOL=1.0E-5  $END
 $CONTRL SCFTYP=RHF $END
 $CONTRL ICHARG=0  MULT=1 $END
 $BASIS GBASIS=TZV $END
 $DATA
Molecule specification
C1
O  8.000000 -0.000000 -0.388000 0.000000
H  1.000000 0.751000 0.194000 0.000000
H  1.000000 -0.751000 0.194000 0.000000
 $END
