%Chk=h2oHF
#P HF/GEN SCF(XQC,Tight) Opt(Tight) Gfinput IOP(6/7=3)
#Units(Ang,Deg)

Comments

0   1
  H      0.594398   -0.430112   -0.202093
  H      0.130350    0.936362   -0.671422
  O      0.575252    0.493751    0.053280

 O 0
 S 6 1.0 
        18050.0000000    0.000756999830
         2660.0000000    0.006065998635
          585.7000000    0.032781992623
          160.9000000    0.132608970160
           51.1600000    0.396838910703
           17.9000000    0.542571877910
 S 2 1.0 
      17.9000000    0.262489933687
       6.6390000    0.769827805517
 S 1 1.0 
      2.0770000    1.000000000000
 S 1 1.0 
      0.7736000    1.000000000000
 S 1 1.0 
       0.2558000    1.000000000000
 P 4 1.0 
     49.8300000    0.016357993061
     11.4900000    0.106452954840
      3.6090000    0.349301851817
      1.3210000    0.657182721206
 P 1 1.0 
       0.4821000    1.000000000000
 P 1 1.0 
   0.1651000    1.000000000000
****
 H 0
 S 3 1.0 
    33.6400000    0.025373656982
     5.0580000    0.189681435760
     1.1470000    0.852921469637
 S 1 1.0 
   0.3211000    1.000000000000
 S 1 1.0 
     0.1013000    1.000000000000
****

--Link1--
%Chk=h2oHF
# HF/chkbas SCF(XQC,Tight)  Freq iop(7/33=1)
# Test Guess(Read) Geom=AllCheck

