! RIJCOSX RI-B2PLYP D3BJ def2-tzvpp def2-tzvpp/JK def2-tzvpp/C TIGHTSCF 
! Opt NumFreq

* xyz 0   1
  H      0.594398   -0.430112   -0.202093
  H      0.130350    0.936362   -0.671422
  O      0.575252    0.493751    0.053280
*
