! RIJCOSX RI-B2PLYP D3BJ def2-tzvpp def2-tzvpp/C TIGHTSCF PAL8
! TightOpt NumFreq
* xyz 0 1
C      0.513305   -1.305779   -0.067994
C      1.847830   -1.056902   -0.326647
C      2.291000    0.240597   -0.468624
C      1.383137    1.269139   -0.347970
C      0.034589    0.999833   -0.085781
C     -0.403367   -0.289259    0.054845
C     -1.801871   -0.539867    0.325435
C     -2.732824    0.379102    0.455368
H      0.223367   -2.344234    0.033650
H      2.584643   -1.850223   -0.426486
H      3.356278    0.433778   -0.674834
H      1.721856    2.301723   -0.458371
H     -0.628130    1.855289   -0.002539
H     -2.092732   -1.604281    0.428512
H     -2.549048    1.433576    0.372581
H     -3.748033    0.077507    0.657335

*
