! RIJCOSX RI-B2PLYP D3BJ def2-tzvpp def2-tzvpp/C TIGHTSCF PAL8
! TightOpt NumFreq
* xyz 0 1
C      1.306329   -0.046927   -0.168189
C      0.166137    0.577358    0.019199
C     -1.064530   -0.267144    0.137507
H      2.200163    0.560077   -0.254472
H      1.412295   -1.120683   -0.241787
H      0.087934    1.637489    0.088305
H     -1.939844    0.363655    0.452297
H     -1.278451   -0.630674   -0.893096
H     -0.890033   -1.073152    0.860236

*
