! RIJCOSX RI-B2PLYP D3BJ def2-tzvpp def2-tzvpp/C TIGHTSCF PAL8
! TightOpt NumFreq
* xyz 0 1
O     -0.004203    0.360447   -0.000000
H      0.825216   -0.178856    0.000000
H     -0.821013   -0.181591   -0.000000

*
