! RIJCOSX RI-B2PLYP D3BJ def2-tzvpp def2-tzvpp/C TIGHTSCF PAL8
! TightOpt NumFreq
* xyz 0 1
O     -3.529333   -0.898287   -0.819575
C     -2.852577   -0.227002    0.020146
O     -3.546376    0.453930    0.991545
C     -1.402353   -0.187371   -0.052479
C     -0.671613   -0.851323   -1.004263
C      0.704228   -0.797900   -1.051975
C      1.376368   -0.059187   -0.121686
C      2.854223    0.006185   -0.162217
O      3.552305    0.745660    0.766791
O      3.460768   -0.610438   -1.039830
C      0.672940    0.620353    0.848593
C     -0.695936    0.549724    0.872674
H     -4.462374    0.819570    0.773254
H     -1.241005   -1.431550   -1.731382
H      1.236192   -1.349689   -1.836443
H      4.552754    0.929511    0.691146
H      1.247960    1.195230    1.568073
H     -1.256170    1.092584    1.647640

*
