 $CONTRL RUNTYP=OPTIMIZE $END
 $CONTRL SCFTYP=RHF $END
 $CONTRL  MPLEVL=2 $END
 $SCF NCONV=10 $END
 $STATPT  HSSEND=.T. OptTol=1e-8 NStep=500 $END
 $CONTRL ICHARG=0  MULT=1 $END
 $BASIS GBASIS=TZV $END
 $CONTRL  D5=.TRUE. $END
 $DATA
Molecule specification
C1
O          8.0         0.000000    0.000000    0.126181
H          1.0         0.000000    0.760159   -0.504724
H          1.0         0.000000   -0.760159   -0.504724
 $END
